!2-port S-parameter file
!Title: ** capacitor model
!Generated by ngspice at Sun Jun  4 15:54:23  2023
# Hz S RI R 50
!freq            ReS11           ImS11           ReS21           ImS21           ReS12           ImS12           ReS22           ImS22         
 1.000000e+02  -2.416142e-01  -4.280337e-01   7.583858e-01  -4.280337e-01   7.583858e-01  -4.280337e-01  -2.416142e-01  -4.280337e-01  
 1.046183e+02  -2.585429e-01  -4.378046e-01   7.414571e-01  -4.378046e-01   7.414571e-01  -4.378046e-01  -2.585429e-01  -4.378046e-01  
 1.094500e+02  -2.762257e-01  -4.470992e-01   7.237743e-01  -4.470992e-01   7.237743e-01  -4.470992e-01  -2.762257e-01  -4.470992e-01  
 1.145048e+02  -2.946372e-01  -4.558475e-01   7.053628e-01  -4.558475e-01   7.053628e-01  -4.558475e-01  -2.946372e-01  -4.558475e-01  
 1.197930e+02  -3.137439e-01  -4.639802e-01   6.862561e-01  -4.639802e-01   6.862561e-01  -4.639802e-01  -3.137439e-01  -4.639802e-01  
 1.253254e+02  -3.335037e-01  -4.714297e-01   6.664963e-01  -4.714297e-01   6.664963e-01  -4.714297e-01  -3.335037e-01  -4.714297e-01  
 1.311134e+02  -3.538662e-01  -4.781317e-01   6.461338e-01  -4.781317e-01   6.461338e-01  -4.781317e-01  -3.538662e-01  -4.781317e-01  
 1.371687e+02  -3.747727e-01  -4.840259e-01   6.252273e-01  -4.840259e-01   6.252273e-01  -4.840259e-01  -3.747727e-01  -4.840259e-01  
 1.435036e+02  -3.961570e-01  -4.890577e-01   6.038430e-01  -4.890577e-01   6.038430e-01  -4.890577e-01  -3.961570e-01  -4.890577e-01  
 1.501311e+02  -4.179457e-01  -4.931792e-01   5.820543e-01  -4.931792e-01   5.820543e-01  -4.931792e-01  -4.179457e-01  -4.931792e-01  
 1.570646e+02  -4.400592e-01  -4.963503e-01   5.599408e-01  -4.963503e-01   5.599408e-01  -4.963503e-01  -4.400592e-01  -4.963503e-01  
 1.643184e+02  -4.624132e-01  -4.985394e-01   5.375868e-01  -4.985394e-01   5.375868e-01  -4.985394e-01  -4.624132e-01  -4.985394e-01  
 1.719072e+02  -4.849190e-01  -4.997245e-01   5.150810e-01  -4.997245e-01   5.150810e-01  -4.997245e-01  -4.849190e-01  -4.997245e-01  
 1.798465e+02  -5.074861e-01  -4.998937e-01   4.925139e-01  -4.998937e-01   4.925139e-01  -4.998937e-01  -5.074861e-01  -4.998937e-01  
 1.881524e+02  -5.300224e-01  -4.990453e-01   4.699776e-01  -4.990453e-01   4.699776e-01  -4.990453e-01  -5.300224e-01  -4.990453e-01  
 1.968419e+02  -5.524368e-01  -4.971878e-01   4.475632e-01  -4.971878e-01   4.475632e-01  -4.971878e-01  -5.524368e-01  -4.971878e-01  
 2.059328e+02  -5.746398e-01  -4.943400e-01   4.253602e-01  -4.943400e-01   4.253602e-01  -4.943400e-01  -5.746398e-01  -4.943400e-01  
 2.154435e+02  -5.965456e-01  -4.905303e-01   4.034544e-01  -4.905303e-01   4.034544e-01  -4.905303e-01  -5.965456e-01  -4.905303e-01  
 2.253934e+02  -6.180727e-01  -4.857959e-01   3.819273e-01  -4.857959e-01   3.819273e-01  -4.857959e-01  -6.180727e-01  -4.857959e-01  
 2.358028e+02  -6.391457e-01  -4.801825e-01   3.608543e-01  -4.801825e-01   3.608543e-01  -4.801825e-01  -6.391457e-01  -4.801825e-01  
 2.466930e+02  -6.596958e-01  -4.737425e-01   3.403042e-01  -4.737425e-01   3.403042e-01  -4.737425e-01  -6.596958e-01  -4.737425e-01  
 2.580862e+02  -6.796619e-01  -4.665344e-01   3.203381e-01  -4.665344e-01   3.203381e-01  -4.665344e-01  -6.796619e-01  -4.665344e-01  
 2.700055e+02  -6.989906e-01  -4.586214e-01   3.010094e-01  -4.586214e-01   3.010094e-01  -4.586214e-01  -6.989906e-01  -4.586214e-01  
 2.824752e+02  -7.176373e-01  -4.500700e-01   2.823627e-01  -4.500700e-01   2.823627e-01  -4.500700e-01  -7.176373e-01  -4.500700e-01  
 2.955209e+02  -7.355654e-01  -4.409492e-01   2.644346e-01  -4.409492e-01   2.644346e-01  -4.409492e-01  -7.355654e-01  -4.409492e-01  
 3.091691e+02  -7.527470e-01  -4.313288e-01   2.472530e-01  -4.313288e-01   2.472530e-01  -4.313288e-01  -7.527470e-01  -4.313288e-01  
 3.234476e+02  -7.691621e-01  -4.212786e-01   2.308379e-01  -4.212786e-01   2.308379e-01  -4.212786e-01  -7.691621e-01  -4.212786e-01  
 3.383855e+02  -7.847985e-01  -4.108676e-01   2.152015e-01  -4.108676e-01   2.152015e-01  -4.108676e-01  -7.847985e-01  -4.108676e-01  
 3.540133e+02  -7.996512e-01  -4.001626e-01   2.003488e-01  -4.001626e-01   2.003488e-01  -4.001626e-01  -7.996512e-01  -4.001626e-01  
 3.703629e+02  -8.137216e-01  -3.892278e-01   1.862784e-01  -3.892278e-01   1.862784e-01  -3.892278e-01  -8.137216e-01  -3.892278e-01  
 3.874675e+02  -8.270171e-01  -3.781243e-01   1.729829e-01  -3.781243e-01   1.729829e-01  -3.781243e-01  -8.270171e-01  -3.781243e-01  
 4.053621e+02  -8.395502e-01  -3.669095e-01   1.604498e-01  -3.669095e-01   1.604498e-01  -3.669095e-01  -8.395502e-01  -3.669095e-01  
 4.240831e+02  -8.513380e-01  -3.556366e-01   1.486620e-01  -3.556366e-01   1.486620e-01  -3.556366e-01  -8.513380e-01  -3.556366e-01  
 4.436687e+02  -8.624011e-01  -3.443546e-01   1.375989e-01  -3.443546e-01   1.375989e-01  -3.443546e-01  -8.624011e-01  -3.443546e-01  
 4.641589e+02  -8.727635e-01  -3.331082e-01   1.272365e-01  -3.331082e-01   1.272365e-01  -3.331082e-01  -8.727635e-01  -3.331082e-01  
 4.855953e+02  -8.824512e-01  -3.219375e-01   1.175488e-01  -3.219375e-01   1.175488e-01  -3.219375e-01  -8.824512e-01  -3.219375e-01  
 5.080218e+02  -8.914925e-01  -3.108785e-01   1.085075e-01  -3.108785e-01   1.085075e-01  -3.108785e-01  -8.914925e-01  -3.108785e-01  
 5.314840e+02  -8.999166e-01  -2.999628e-01   1.000834e-01  -2.999628e-01   1.000834e-01  -2.999628e-01  -8.999166e-01  -2.999628e-01  
 5.560298e+02  -9.077538e-01  -2.892180e-01   9.224625e-02  -2.892180e-01   9.224625e-02  -2.892180e-01  -9.077538e-01  -2.892180e-01  
 5.817091e+02  -9.150345e-01  -2.786679e-01   8.496545e-02  -2.786679e-01   8.496545e-02  -2.786679e-01  -9.150345e-01  -2.786679e-01  
 6.085745e+02  -9.217896e-01  -2.683326e-01   7.821043e-02  -2.683326e-01   7.821043e-02  -2.683326e-01  -9.217896e-01  -2.683326e-01  
 6.366805e+02  -9.280491e-01  -2.582288e-01   7.195086e-02  -2.582288e-01   7.195086e-02  -2.582288e-01  -9.280491e-01  -2.582288e-01  
 6.660846e+02  -9.338430e-01  -2.483704e-01   6.615696e-02  -2.483704e-01   6.615696e-02  -2.483704e-01  -9.338430e-01  -2.483704e-01  
 6.968467e+02  -9.392003e-01  -2.387681e-01   6.079970e-02  -2.387681e-01   6.079970e-02  -2.387681e-01  -9.392003e-01  -2.387681e-01  
 7.290295e+02  -9.441490e-01  -2.294303e-01   5.585097e-02  -2.294303e-01   5.585097e-02  -2.294303e-01  -9.441490e-01  -2.294303e-01  
 7.626986e+02  -9.487163e-01  -2.203630e-01   5.128371e-02  -2.203630e-01   5.128371e-02  -2.203630e-01  -9.487163e-01  -2.203630e-01  
 7.979226e+02  -9.529280e-01  -2.115702e-01   4.707199e-02  -2.115702e-01   4.707199e-02  -2.115702e-01  -9.529280e-01  -2.115702e-01  
 8.347734e+02  -9.568089e-01  -2.030541e-01   4.319108e-02  -2.030541e-01   4.319108e-02  -2.030541e-01  -9.568089e-01  -2.030541e-01  
 8.733262e+02  -9.603825e-01  -1.948152e-01   3.961752e-02  -1.948152e-01   3.961752e-02  -1.948152e-01  -9.603825e-01  -1.948152e-01  
 9.136594e+02  -9.636709e-01  -1.868527e-01   3.632908e-02  -1.868527e-01   3.632908e-02  -1.868527e-01  -9.636709e-01  -1.868527e-01  
 9.558553e+02  -9.666952e-01  -1.791647e-01   3.330482e-02  -1.791647e-01   3.330482e-02  -1.791647e-01  -9.666952e-01  -1.791647e-01  
 1.000000e+03  -9.694750e-01  -1.717479e-01   3.052504e-02  -1.717479e-01   3.052504e-02  -1.717479e-01  -9.694750e-01  -1.717479e-01  
 1.046183e+03  -9.720287e-01  -1.645986e-01   2.797125e-02  -1.645986e-01   2.797125e-02  -1.645986e-01  -9.720287e-01  -1.645986e-01  
 1.094500e+03  -9.743738e-01  -1.577120e-01   2.562617e-02  -1.577120e-01   2.562617e-02  -1.577120e-01  -9.743738e-01  -1.577120e-01  
 1.145048e+03  -9.765264e-01  -1.510829e-01   2.347365e-02  -1.510829e-01   2.347365e-02  -1.510829e-01  -9.765264e-01  -1.510829e-01  
 1.197930e+03  -9.785014e-01  -1.447054e-01   2.149864e-02  -1.447054e-01   2.149864e-02  -1.447054e-01  -9.785014e-01  -1.447054e-01  
 1.253254e+03  -9.803128e-01  -1.385735e-01   1.968717e-02  -1.385735e-01   1.968717e-02  -1.385735e-01  -9.803128e-01  -1.385735e-01  
 1.311134e+03  -9.819738e-01  -1.326806e-01   1.802622e-02  -1.326806e-01   1.802622e-02  -1.326806e-01  -9.819738e-01  -1.326806e-01  
 1.371687e+03  -9.834962e-01  -1.270200e-01   1.650376e-02  -1.270200e-01   1.650376e-02  -1.270200e-01  -9.834962e-01  -1.270200e-01  
 1.435036e+03  -9.848914e-01  -1.215850e-01   1.510861e-02  -1.215850e-01   1.510861e-02  -1.215850e-01  -9.848914e-01  -1.215850e-01  
 1.501311e+03  -9.861695e-01  -1.163684e-01   1.383045e-02  -1.163684e-01   1.383045e-02  -1.163684e-01  -9.861695e-01  -1.163684e-01  
 1.570646e+03  -9.873403e-01  -1.113634e-01   1.265975e-02  -1.113634e-01   1.265975e-02  -1.113634e-01  -9.873403e-01  -1.113634e-01  
 1.643184e+03  -9.884123e-01  -1.065628e-01   1.158769e-02  -1.065628e-01   1.158769e-02  -1.065628e-01  -9.884123e-01  -1.065628e-01  
 1.719072e+03  -9.893938e-01  -1.019598e-01   1.060616e-02  -1.019598e-01   1.060616e-02  -1.019598e-01  -9.893938e-01  -1.019598e-01  
 1.798465e+03  -9.902923e-01  -9.754726e-02   9.707672e-03  -9.754726e-02   9.707672e-03  -9.754726e-02  -9.902923e-01  -9.754726e-02  
 1.881524e+03  -9.911147e-01  -9.331845e-02   8.885329e-03  -9.331845e-02   8.885329e-03  -9.331845e-02  -9.911147e-01  -9.331845e-02  
 1.968419e+03  -9.918672e-01  -8.926662e-02   8.132794e-03  -8.926662e-02   8.132794e-03  -8.926662e-02  -9.918672e-01  -8.926662e-02  
 2.059328e+03  -9.925558e-01  -8.538516e-02   7.444233e-03  -8.538516e-02   7.444233e-03  -8.538516e-02  -9.925558e-01  -8.538516e-02  
 2.154435e+03  -9.931857e-01  -8.166762e-02   6.814286e-03  -8.166762e-02   6.814286e-03  -8.166762e-02  -9.931857e-01  -8.166762e-02  
 2.253934e+03  -9.937620e-01  -7.810767e-02   6.238030e-03  -7.810767e-02   6.238030e-03  -7.810767e-02  -9.937620e-01  -7.810767e-02  
 2.358028e+03  -9.942891e-01  -7.469918e-02   5.710943e-03  -7.469918e-02   5.710943e-03  -7.469918e-02  -9.942891e-01  -7.469918e-02  
 2.466930e+03  -9.947711e-01  -7.143617e-02   5.228877e-03  -7.143617e-02   5.228877e-03  -7.143617e-02  -9.947711e-01  -7.143617e-02  
 2.580862e+03  -9.952120e-01  -6.831285e-02   4.788023e-03  -6.831285e-02   4.788023e-03  -6.831285e-02  -9.952120e-01  -6.831285e-02  
 2.700055e+03  -9.956151e-01  -6.532360e-02   4.384892e-03  -6.532360e-02   4.384892e-03  -6.532360e-02  -9.956151e-01  -6.532360e-02  
 2.824752e+03  -9.959837e-01  -6.246296e-02   4.016281e-03  -6.246296e-02   4.016281e-03  -6.246296e-02  -9.959837e-01  -6.246296e-02  
 2.955209e+03  -9.963207e-01  -5.972570e-02   3.679258e-03  -5.972570e-02   3.679258e-03  -5.972570e-02  -9.963207e-01  -5.972570e-02  
 3.091691e+03  -9.966289e-01  -5.710671e-02   3.371134e-03  -5.710671e-02   3.371134e-03  -5.710671e-02  -9.966289e-01  -5.710671e-02  
 3.234476e+03  -9.969106e-01  -5.460111e-02   3.089447e-03  -5.460111e-02   3.089447e-03  -5.460111e-02  -9.969106e-01  -5.460111e-02  
 3.383855e+03  -9.971681e-01  -5.220417e-02   2.831942e-03  -5.220417e-02   2.831942e-03  -5.220417e-02  -9.971681e-01  -5.220417e-02  
 3.540133e+03  -9.974034e-01  -4.991134e-02   2.596553e-03  -4.991134e-02   2.596553e-03  -4.991134e-02  -9.974034e-01  -4.991134e-02  
 3.703629e+03  -9.976186e-01  -4.771823e-02   2.381391e-03  -4.771823e-02   2.381391e-03  -4.771823e-02  -9.976186e-01  -4.771823e-02  
 3.874675e+03  -9.978153e-01  -4.562064e-02   2.184725e-03  -4.562064e-02   2.184725e-03  -4.562064e-02  -9.978153e-01  -4.562064e-02  
 4.053621e+03  -9.979950e-01  -4.361450e-02   2.004972e-03  -4.361450e-02   2.004972e-03  -4.361450e-02  -9.979950e-01  -4.361450e-02  
 4.240831e+03  -9.981593e-01  -4.169592e-02   1.840682e-03  -4.169592e-02   1.840682e-03  -4.169592e-02  -9.981593e-01  -4.169592e-02  
 4.436687e+03  -9.983095e-01  -3.986117e-02   1.690529e-03  -3.986117e-02   1.690529e-03  -3.986117e-02  -9.983095e-01  -3.986117e-02  
 4.641589e+03  -9.984467e-01  -3.810665e-02   1.553302e-03  -3.810665e-02   1.553302e-03  -3.810665e-02  -9.984467e-01  -3.810665e-02  
 4.855953e+03  -9.985721e-01  -3.642891e-02   1.427889e-03  -3.642891e-02   1.427889e-03  -3.642891e-02  -9.985721e-01  -3.642891e-02  
 5.080218e+03  -9.986867e-01  -3.482466e-02   1.313278e-03  -3.482466e-02   1.313278e-03  -3.482466e-02  -9.986867e-01  -3.482466e-02  
 5.314840e+03  -9.987915e-01  -3.329071e-02   1.208539e-03  -3.329071e-02   1.208539e-03  -3.329071e-02  -9.987915e-01  -3.329071e-02  
 5.560298e+03  -9.988872e-01  -3.182404e-02   1.112824e-03  -3.182404e-02   1.112824e-03  -3.182404e-02  -9.988872e-01  -3.182404e-02  
 5.817091e+03  -9.989746e-01  -3.042172e-02   1.025357e-03  -3.042172e-02   1.025357e-03  -3.042172e-02  -9.989746e-01  -3.042172e-02  
 6.085745e+03  -9.990546e-01  -2.908096e-02   9.454283e-04  -2.908096e-02   9.454283e-04  -2.908096e-02  -9.990546e-01  -2.908096e-02  
 6.366805e+03  -9.991276e-01  -2.779908e-02   8.723898e-04  -2.779908e-02   8.723898e-04  -2.779908e-02  -9.991276e-01  -2.779908e-02  
 6.660846e+03  -9.991944e-01  -2.657353e-02   8.056481e-04  -2.657353e-02   8.056481e-04  -2.657353e-02  -9.991944e-01  -2.657353e-02  
 6.968467e+03  -9.992553e-01  -2.540186e-02   7.446612e-04  -2.540186e-02   7.446612e-04  -2.540186e-02  -9.992553e-01  -2.540186e-02  
 7.290295e+03  -9.993111e-01  -2.428170e-02   6.889334e-04  -2.428170e-02   6.889334e-04  -2.428170e-02  -9.993111e-01  -2.428170e-02  
 7.626986e+03  -9.993620e-01  -2.321081e-02   6.380117e-04  -2.321081e-02   6.380117e-04  -2.321081e-02  -9.993620e-01  -2.321081e-02  
 7.979226e+03  -9.994085e-01  -2.218704e-02   5.914821e-04  -2.218704e-02   5.914821e-04  -2.218704e-02  -9.994085e-01  -2.218704e-02  
 8.347734e+03  -9.994510e-01  -2.120832e-02   5.489661e-04  -2.120832e-02   5.489661e-04  -2.120832e-02  -9.994510e-01  -2.120832e-02  
 8.733262e+03  -9.994899e-01  -2.027269e-02   5.101178e-04  -2.027269e-02   5.101178e-04  -2.027269e-02  -9.994899e-01  -2.027269e-02  
 9.136594e+03  -9.995254e-01  -1.937825e-02   4.746211e-04  -1.937825e-02   4.746211e-04  -1.937825e-02  -9.995254e-01  -1.937825e-02  
 9.558553e+03  -9.995578e-01  -1.852320e-02   4.421869e-04  -1.852320e-02   4.421869e-04  -1.852320e-02  -9.995578e-01  -1.852320e-02  
 1.000000e+04  -9.995874e-01  -1.770582e-02   4.125513e-04  -1.770582e-02   4.125513e-04  -1.770582e-02  -9.995874e-01  -1.770582e-02  
 1.046183e+04  -9.996145e-01  -1.692443e-02   3.854730e-04  -1.692443e-02   3.854730e-04  -1.692443e-02  -9.996145e-01  -1.692443e-02  
 1.094500e+04  -9.996393e-01  -1.617748e-02   3.607313e-04  -1.617748e-02   3.607313e-04  -1.617748e-02  -9.996393e-01  -1.617748e-02  
 1.145048e+04  -9.996619e-01  -1.546343e-02   3.381247e-04  -1.546343e-02   3.381247e-04  -1.546343e-02  -9.996619e-01  -1.546343e-02  
 1.197930e+04  -9.996825e-01  -1.478086e-02   3.174691e-04  -1.478086e-02   3.174691e-04  -1.478086e-02  -9.996825e-01  -1.478086e-02  
 1.253254e+04  -9.997014e-01  -1.412836e-02   2.985962e-04  -1.412836e-02   2.985962e-04  -1.412836e-02  -9.997014e-01  -1.412836e-02  
 1.311134e+04  -9.997186e-01  -1.350462e-02   2.813522e-04  -1.350462e-02   2.813522e-04  -1.350462e-02  -9.997186e-01  -1.350462e-02  
 1.371687e+04  -9.997344e-01  -1.290838e-02   2.655965e-04  -1.290838e-02   2.655965e-04  -1.290838e-02  -9.997344e-01  -1.290838e-02  
 1.435036e+04  -9.997488e-01  -1.233841e-02   2.512007e-04  -1.233841e-02   2.512007e-04  -1.233841e-02  -9.997488e-01  -1.233841e-02  
 1.501311e+04  -9.997620e-01  -1.179357e-02   2.380475e-04  -1.179357e-02   2.380475e-04  -1.179357e-02  -9.997620e-01  -1.179357e-02  
 1.570646e+04  -9.997740e-01  -1.127275e-02   2.260297e-04  -1.127275e-02   2.260297e-04  -1.127275e-02  -9.997740e-01  -1.127275e-02  
 1.643184e+04  -9.997850e-01  -1.077489e-02   2.150492e-04  -1.077489e-02   2.150492e-04  -1.077489e-02  -9.997850e-01  -1.077489e-02  
 1.719072e+04  -9.997950e-01  -1.029897e-02   2.050166e-04  -1.029897e-02   2.050166e-04  -1.029897e-02  -9.997950e-01  -1.029897e-02  
 1.798465e+04  -9.998041e-01  -9.844034e-03   1.958500e-04  -9.844034e-03   1.958500e-04  -9.844034e-03  -9.998041e-01  -9.844034e-03  
 1.881524e+04  -9.998125e-01  -9.409151e-03   1.874748e-04  -9.409151e-03   1.874748e-04  -9.409151e-03  -9.998125e-01  -9.409151e-03  
 1.968419e+04  -9.998202e-01  -8.993437e-03   1.798225e-04  -8.993437e-03   1.798225e-04  -8.993437e-03  -9.998202e-01  -8.993437e-03  
 2.059328e+04  -9.998272e-01  -8.596047e-03   1.728308e-04  -8.596047e-03   1.728308e-04  -8.596047e-03  -9.998272e-01  -8.596047e-03  
 2.154435e+04  -9.998336e-01  -8.216171e-03   1.664428e-04  -8.216171e-03   1.664428e-04  -8.216171e-03  -9.998336e-01  -8.216171e-03  
 2.253934e+04  -9.998394e-01  -7.853037e-03   1.606061e-04  -7.853037e-03   1.606061e-04  -7.853037e-03  -9.998394e-01  -7.853037e-03  
 2.358028e+04  -9.998447e-01  -7.505906e-03   1.552734e-04  -7.505906e-03   1.552734e-04  -7.505906e-03  -9.998447e-01  -7.505906e-03  
 2.466930e+04  -9.998496e-01  -7.174070e-03   1.504011e-04  -7.174070e-03   1.504011e-04  -7.174070e-03  -9.998496e-01  -7.174070e-03  
 2.580862e+04  -9.998541e-01  -6.856854e-03   1.459494e-04  -6.856854e-03   1.459494e-04  -6.856854e-03  -9.998541e-01  -6.856854e-03  
 2.700055e+04  -9.998581e-01  -6.553613e-03   1.418820e-04  -6.553613e-03   1.418820e-04  -6.553613e-03  -9.998581e-01  -6.553613e-03  
 2.824752e+04  -9.998618e-01  -6.263728e-03   1.381658e-04  -6.263728e-03   1.381658e-04  -6.263728e-03  -9.998618e-01  -6.263728e-03  
 2.955209e+04  -9.998652e-01  -5.986610e-03   1.347704e-04  -5.986610e-03   1.347704e-04  -5.986610e-03  -9.998652e-01  -5.986610e-03  
 3.091691e+04  -9.998683e-01  -5.721693e-03   1.316681e-04  -5.721693e-03   1.316681e-04  -5.721693e-03  -9.998683e-01  -5.721693e-03  
 3.234476e+04  -9.998712e-01  -5.468438e-03   1.288337e-04  -5.468438e-03   1.288337e-04  -5.468438e-03  -9.998712e-01  -5.468438e-03  
 3.383855e+04  -9.998738e-01  -5.226329e-03   1.262440e-04  -5.226329e-03   1.262440e-04  -5.226329e-03  -9.998738e-01  -5.226329e-03  
 3.540133e+04  -9.998761e-01  -4.994873e-03   1.238779e-04  -4.994873e-03   1.238779e-04  -4.994873e-03  -9.998761e-01  -4.994873e-03  
 3.703629e+04  -9.998783e-01  -4.773599e-03   1.217161e-04  -4.773599e-03   1.217161e-04  -4.773599e-03  -9.998783e-01  -4.773599e-03  
 3.874675e+04  -9.998803e-01  -4.562054e-03   1.197409e-04  -4.562054e-03   1.197409e-04  -4.562054e-03  -9.998803e-01  -4.562054e-03  
 4.053621e+04  -9.998821e-01  -4.359809e-03   1.179362e-04  -4.359809e-03   1.179362e-04  -4.359809e-03  -9.998821e-01  -4.359809e-03  
 4.240831e+04  -9.998837e-01  -4.166452e-03   1.162874e-04  -4.166452e-03   1.162874e-04  -4.166452e-03  -9.998837e-01  -4.166452e-03  
 4.436687e+04  -9.998852e-01  -3.981587e-03   1.147809e-04  -3.981587e-03   1.147809e-04  -3.981587e-03  -9.998852e-01  -3.981587e-03  
 4.641589e+04  -9.998866e-01  -3.804839e-03   1.134045e-04  -3.804839e-03   1.134045e-04  -3.804839e-03  -9.998866e-01  -3.804839e-03  
 4.855953e+04  -9.998879e-01  -3.635847e-03   1.121469e-04  -3.635847e-03   1.121469e-04  -3.635847e-03  -9.998879e-01  -3.635847e-03  
 5.080218e+04  -9.998890e-01  -3.474267e-03   1.109979e-04  -3.474267e-03   1.109979e-04  -3.474267e-03  -9.998890e-01  -3.474267e-03  
 5.314840e+04  -9.998901e-01  -3.319770e-03   1.099481e-04  -3.319770e-03   1.099481e-04  -3.319770e-03  -9.998901e-01  -3.319770e-03  
 5.560298e+04  -9.998910e-01  -3.172040e-03   1.089890e-04  -3.172040e-03   1.089890e-04  -3.172040e-03  -9.998910e-01  -3.172040e-03  
 5.817091e+04  -9.998919e-01  -3.030776e-03   1.081126e-04  -3.030776e-03   1.081126e-04  -3.030776e-03  -9.998919e-01  -3.030776e-03  
 6.085745e+04  -9.998927e-01  -2.895692e-03   1.073120e-04  -2.895692e-03   1.073120e-04  -2.895692e-03  -9.998927e-01  -2.895692e-03  
 6.366805e+04  -9.998934e-01  -2.766510e-03   1.065804e-04  -2.766510e-03   1.065804e-04  -2.766510e-03  -9.998934e-01  -2.766510e-03  
 6.660846e+04  -9.998941e-01  -2.642968e-03   1.059121e-04  -2.642968e-03   1.059121e-04  -2.642968e-03  -9.998941e-01  -2.642968e-03  
 6.968467e+04  -9.998947e-01  -2.524814e-03   1.053014e-04  -2.524814e-03   1.053014e-04  -2.524814e-03  -9.998947e-01  -2.524814e-03  
 7.290295e+04  -9.998953e-01  -2.411808e-03   1.047435e-04  -2.411808e-03   1.047435e-04  -2.411808e-03  -9.998953e-01  -2.411808e-03  
 7.626986e+04  -9.998958e-01  -2.303718e-03   1.042337e-04  -2.303718e-03   1.042337e-04  -2.303718e-03  -9.998958e-01  -2.303718e-03  
 7.979226e+04  -9.998962e-01  -2.200325e-03   1.037680e-04  -2.200325e-03   1.037680e-04  -2.200325e-03  -9.998962e-01  -2.200325e-03  
 8.347734e+04  -9.998967e-01  -2.101417e-03   1.033425e-04  -2.101417e-03   1.033425e-04  -2.101417e-03  -9.998967e-01  -2.101417e-03  
 8.733262e+04  -9.998970e-01  -2.006794e-03   1.029537e-04  -2.006794e-03   1.029537e-04  -2.006794e-03  -9.998970e-01  -2.006794e-03  
 9.136594e+04  -9.998974e-01  -1.916262e-03   1.025985e-04  -1.916262e-03   1.025985e-04  -1.916262e-03  -9.998974e-01  -1.916262e-03  
 9.558553e+04  -9.998977e-01  -1.829636e-03   1.022740e-04  -1.829636e-03   1.022740e-04  -1.829636e-03  -9.998977e-01  -1.829636e-03  
 1.000000e+05  -9.998980e-01  -1.746741e-03   1.019775e-04  -1.746741e-03   1.019775e-04  -1.746741e-03  -9.998980e-01  -1.746741e-03  
 1.046183e+05  -9.998983e-01  -1.667406e-03   1.017066e-04  -1.667406e-03   1.017066e-04  -1.667406e-03  -9.998983e-01  -1.667406e-03  
 1.094500e+05  -9.998985e-01  -1.591471e-03   1.014591e-04  -1.591471e-03   1.014591e-04  -1.591471e-03  -9.998985e-01  -1.591471e-03  
 1.145048e+05  -9.998988e-01  -1.518781e-03   1.012330e-04  -1.518781e-03   1.012330e-04  -1.518781e-03  -9.998988e-01  -1.518781e-03  
 1.197930e+05  -9.998990e-01  -1.449187e-03   1.010264e-04  -1.449187e-03   1.010264e-04  -1.449187e-03  -9.998990e-01  -1.449187e-03  
 1.253254e+05  -9.998992e-01  -1.382547e-03   1.008377e-04  -1.382547e-03   1.008377e-04  -1.382547e-03  -9.998992e-01  -1.382547e-03  
 1.311134e+05  -9.998993e-01  -1.318726e-03   1.006653e-04  -1.318726e-03   1.006653e-04  -1.318726e-03  -9.998993e-01  -1.318726e-03  
 1.371687e+05  -9.998995e-01  -1.257594e-03   1.005077e-04  -1.257594e-03   1.005077e-04  -1.257594e-03  -9.998995e-01  -1.257594e-03  
 1.435036e+05  -9.998996e-01  -1.199026e-03   1.003639e-04  -1.199026e-03   1.003639e-04  -1.199026e-03  -9.998996e-01  -1.199026e-03  
 1.501311e+05  -9.998998e-01  -1.142901e-03   1.002324e-04  -1.142901e-03   1.002324e-04  -1.142901e-03  -9.998998e-01  -1.142901e-03  
 1.570646e+05  -9.998999e-01  -1.089107e-03   1.001123e-04  -1.089107e-03   1.001123e-04  -1.089107e-03  -9.998999e-01  -1.089107e-03  
 1.643184e+05  -9.999000e-01  -1.037534e-03   1.000026e-04  -1.037534e-03   1.000026e-04  -1.037534e-03  -9.999000e-01  -1.037534e-03  
 1.719072e+05  -9.999001e-01  -9.880756e-04   9.990244e-05  -9.880756e-04   9.990244e-05  -9.880756e-04  -9.999001e-01  -9.880756e-04  
 1.798465e+05  -9.999002e-01  -9.406317e-04   9.981092e-05  -9.406317e-04   9.981092e-05  -9.406317e-04  -9.999002e-01  -9.406317e-04  
 1.881524e+05  -9.999003e-01  -8.951055e-04   9.972734e-05  -8.951055e-04   9.972734e-05  -8.951055e-04  -9.999003e-01  -8.951055e-04  
 1.968419e+05  -9.999003e-01  -8.514042e-04   9.965101e-05  -8.514042e-04   9.965101e-05  -8.514042e-04  -9.999003e-01  -8.514042e-04  
 2.059328e+05  -9.999004e-01  -8.094386e-04   9.958130e-05  -8.094386e-04   9.958130e-05  -8.094386e-04  -9.999004e-01  -8.094386e-04  
 2.154435e+05  -9.999005e-01  -7.691233e-04   9.951766e-05  -7.691233e-04   9.951766e-05  -7.691233e-04  -9.999005e-01  -7.691233e-04  
 2.253934e+05  -9.999005e-01  -7.303761e-04   9.945955e-05  -7.303761e-04   9.945955e-05  -7.303761e-04  -9.999005e-01  -7.303761e-04  
 2.358028e+05  -9.999006e-01  -6.931179e-04   9.940651e-05  -6.931179e-04   9.940651e-05  -6.931179e-04  -9.999006e-01  -6.931179e-04  
 2.466930e+05  -9.999006e-01  -6.572728e-04   9.935810e-05  -6.572728e-04   9.935810e-05  -6.572728e-04  -9.999006e-01  -6.572728e-04  
 2.580862e+05  -9.999007e-01  -6.227677e-04   9.931393e-05  -6.227677e-04   9.931393e-05  -6.227677e-04  -9.999007e-01  -6.227677e-04  
 2.700055e+05  -9.999007e-01  -5.895323e-04   9.927363e-05  -5.895323e-04   9.927363e-05  -5.895323e-04  -9.999007e-01  -5.895323e-04  
 2.824752e+05  -9.999008e-01  -5.574987e-04   9.923688e-05  -5.574987e-04   9.923688e-05  -5.574987e-04  -9.999008e-01  -5.574987e-04  
 2.955209e+05  -9.999008e-01  -5.266018e-04   9.920339e-05  -5.266018e-04   9.920339e-05  -5.266018e-04  -9.999008e-01  -5.266018e-04  
 3.091691e+05  -9.999008e-01  -4.967785e-04   9.917286e-05  -4.967785e-04   9.917286e-05  -4.967785e-04  -9.999008e-01  -4.967785e-04  
 3.234476e+05  -9.999009e-01  -4.679680e-04   9.914506e-05  -4.679680e-04   9.914506e-05  -4.679680e-04  -9.999009e-01  -4.679680e-04  
 3.383855e+05  -9.999009e-01  -4.401115e-04   9.911977e-05  -4.401115e-04   9.911977e-05  -4.401115e-04  -9.999009e-01  -4.401115e-04  
 3.540133e+05  -9.999009e-01  -4.131524e-04   9.909676e-05  -4.131524e-04   9.909676e-05  -4.131524e-04  -9.999009e-01  -4.131524e-04  
 3.703629e+05  -9.999009e-01  -3.870355e-04   9.907586e-05  -3.870355e-04   9.907586e-05  -3.870355e-04  -9.999009e-01  -3.870355e-04  
 3.874675e+05  -9.999009e-01  -3.617077e-04   9.905689e-05  -3.617077e-04   9.905689e-05  -3.617077e-04  -9.999009e-01  -3.617077e-04  
 4.053621e+05  -9.999010e-01  -3.371174e-04   9.903971e-05  -3.371174e-04   9.903971e-05  -3.371174e-04  -9.999010e-01  -3.371174e-04  
 4.240831e+05  -9.999010e-01  -3.132143e-04   9.902416e-05  -3.132143e-04   9.902416e-05  -3.132143e-04  -9.999010e-01  -3.132143e-04  
 4.436687e+05  -9.999010e-01  -2.899498e-04   9.901013e-05  -2.899498e-04   9.901013e-05  -2.899498e-04  -9.999010e-01  -2.899498e-04  
 4.641589e+05  -9.999010e-01  -2.672765e-04   9.899749e-05  -2.672765e-04   9.899749e-05  -2.672765e-04  -9.999010e-01  -2.672765e-04  
 4.855953e+05  -9.999010e-01  -2.451480e-04   9.898615e-05  -2.451480e-04   9.898615e-05  -2.451480e-04  -9.999010e-01  -2.451480e-04  
 5.080218e+05  -9.999010e-01  -2.235194e-04   9.897601e-05  -2.235194e-04   9.897601e-05  -2.235194e-04  -9.999010e-01  -2.235194e-04  
 5.314840e+05  -9.999010e-01  -2.023465e-04   9.896700e-05  -2.023465e-04   9.896700e-05  -2.023465e-04  -9.999010e-01  -2.023465e-04  
 5.560298e+05  -9.999010e-01  -1.815860e-04   9.895902e-05  -1.815860e-04   9.895902e-05  -1.815860e-04  -9.999010e-01  -1.815860e-04  
 5.817091e+05  -9.999010e-01  -1.611958e-04   9.895203e-05  -1.611958e-04   9.895203e-05  -1.611958e-04  -9.999010e-01  -1.611958e-04  
 6.085745e+05  -9.999011e-01  -1.411343e-04   9.894597e-05  -1.411343e-04   9.894597e-05  -1.411343e-04  -9.999011e-01  -1.411343e-04  
 6.366805e+05  -9.999011e-01  -1.213604e-04   9.894078e-05  -1.213604e-04   9.894078e-05  -1.213604e-04  -9.999011e-01  -1.213604e-04  
 6.660846e+05  -9.999011e-01  -1.018340e-04   9.893642e-05  -1.018340e-04   9.893642e-05  -1.018340e-04  -9.999011e-01  -1.018340e-04  
 6.968467e+05  -9.999011e-01  -8.251525e-05   9.893286e-05  -8.251525e-05   9.893286e-05  -8.251525e-05  -9.999011e-01  -8.251525e-05  
 7.290295e+05  -9.999011e-01  -6.336469e-05   9.893006e-05  -6.336469e-05   9.893006e-05  -6.336469e-05  -9.999011e-01  -6.336469e-05  
 7.626986e+05  -9.999011e-01  -4.434331e-05   9.892801e-05  -4.434331e-05   9.892801e-05  -4.434331e-05  -9.999011e-01  -4.434331e-05  
 7.979226e+05  -9.999011e-01  -2.541234e-05   9.892669e-05  -2.541234e-05   9.892669e-05  -2.541234e-05  -9.999011e-01  -2.541234e-05  
 8.347734e+05  -9.999011e-01  -6.533174e-06   9.892609e-05  -6.533174e-06   9.892609e-05  -6.533174e-06  -9.999011e-01  -6.533174e-06  
 8.733262e+05  -9.999011e-01   1.233267e-05   9.892620e-05   1.233267e-05   9.892620e-05   1.233267e-05  -9.999011e-01   1.233267e-05  
 9.136594e+05  -9.999011e-01   3.122366e-05   9.892702e-05   3.122366e-05   9.892702e-05   3.122366e-05  -9.999011e-01   3.122366e-05  
 9.558553e+05  -9.999011e-01   5.017830e-05   9.892857e-05   5.017830e-05   9.892857e-05   5.017830e-05  -9.999011e-01   5.017830e-05  
 1.000000e+06  -9.999011e-01   6.923524e-05   9.893084e-05   6.923524e-05   9.893084e-05   6.923524e-05  -9.999011e-01   6.923524e-05  
 1.046183e+06  -9.999011e-01   8.843334e-05   9.893387e-05   8.843334e-05   9.893387e-05   8.843334e-05  -9.999011e-01   8.843334e-05  
 1.094500e+06  -9.999011e-01   1.078117e-04   9.893767e-05   1.078117e-04   9.893767e-05   1.078117e-04  -9.999011e-01   1.078117e-04  
 1.145048e+06  -9.999011e-01   1.274099e-04   9.894228e-05   1.274099e-04   9.894228e-05   1.274099e-04  -9.999011e-01   1.274099e-04  
 1.197930e+06  -9.999011e-01   1.472679e-04   9.894774e-05   1.472679e-04   9.894774e-05   1.472679e-04  -9.999011e-01   1.472679e-04  
 1.253254e+06  -9.999010e-01   1.674261e-04   9.895408e-05   1.674261e-04   9.895408e-05   1.674261e-04  -9.999010e-01   1.674261e-04  
 1.311134e+06  -9.999010e-01   1.879256e-04   9.896137e-05   1.879256e-04   9.896137e-05   1.879256e-04  -9.999010e-01   1.879256e-04  
 1.371687e+06  -9.999010e-01   2.088083e-04   9.896965e-05   2.088083e-04   9.896965e-05   2.088083e-04  -9.999010e-01   2.088083e-04  
 1.435036e+06  -9.999010e-01   2.301166e-04   9.897901e-05   2.301166e-04   9.897901e-05   2.301166e-04  -9.999010e-01   2.301166e-04  
 1.501311e+06  -9.999010e-01   2.518942e-04   9.898951e-05   2.518942e-04   9.898951e-05   2.518942e-04  -9.999010e-01   2.518942e-04  
 1.570646e+06  -9.999010e-01   2.741852e-04   9.900123e-05   2.741852e-04   9.900123e-05   2.741852e-04  -9.999010e-01   2.741852e-04  
 1.643184e+06  -9.999010e-01   2.970353e-04   9.901429e-05   2.970353e-04   9.901429e-05   2.970353e-04  -9.999010e-01   2.970353e-04  
 1.719072e+06  -9.999010e-01   3.204910e-04   9.902877e-05   3.204910e-04   9.902877e-05   3.204910e-04  -9.999010e-01   3.204910e-04  
 1.798465e+06  -9.999010e-01   3.446000e-04   9.904481e-05   3.446000e-04   9.904481e-05   3.446000e-04  -9.999010e-01   3.446000e-04  
 1.881524e+06  -9.999009e-01   3.694116e-04   9.906253e-05   3.694116e-04   9.906253e-05   3.694116e-04  -9.999009e-01   3.694116e-04  
 1.968419e+06  -9.999009e-01   3.949764e-04   9.908207e-05   3.949764e-04   9.908207e-05   3.949764e-04  -9.999009e-01   3.949764e-04  
 2.059328e+06  -9.999009e-01   4.213464e-04   9.910360e-05   4.213464e-04   9.910360e-05   4.213464e-04  -9.999009e-01   4.213464e-04  
 2.154435e+06  -9.999009e-01   4.485754e-04   9.912729e-05   4.485754e-04   9.912729e-05   4.485754e-04  -9.999009e-01   4.485754e-04  
 2.253934e+06  -9.999008e-01   4.767189e-04   9.915333e-05   4.767189e-04   9.915333e-05   4.767189e-04  -9.999008e-01   4.767189e-04  
 2.358028e+06  -9.999008e-01   5.058344e-04   9.918194e-05   5.058344e-04   9.918194e-05   5.058344e-04  -9.999008e-01   5.058344e-04  
 2.466930e+06  -9.999008e-01   5.359811e-04   9.921335e-05   5.359811e-04   9.921335e-05   5.359811e-04  -9.999008e-01   5.359811e-04  
 2.580862e+06  -9.999008e-01   5.672206e-04   9.924782e-05   5.672206e-04   9.924782e-05   5.672206e-04  -9.999008e-01   5.672206e-04  
 2.700055e+06  -9.999007e-01   5.996165e-04   9.928562e-05   5.996165e-04   9.928562e-05   5.996165e-04  -9.999007e-01   5.996165e-04  
 2.824752e+06  -9.999007e-01   6.332348e-04   9.932707e-05   6.332348e-04   9.932707e-05   6.332348e-04  -9.999007e-01   6.332348e-04  
 2.955209e+06  -9.999006e-01   6.681442e-04   9.937251e-05   6.681442e-04   9.937251e-05   6.681442e-04  -9.999006e-01   6.681442e-04  
 3.091691e+06  -9.999006e-01   7.044157e-04   9.942230e-05   7.044157e-04   9.942230e-05   7.044157e-04  -9.999006e-01   7.044157e-04  
 3.234476e+06  -9.999005e-01   7.421233e-04   9.947685e-05   7.421233e-04   9.947685e-05   7.421233e-04  -9.999005e-01   7.421233e-04  
 3.383855e+06  -9.999005e-01   7.813440e-04   9.953661e-05   7.813440e-04   9.953661e-05   7.813440e-04  -9.999005e-01   7.813440e-04  
 3.540133e+06  -9.999004e-01   8.221576e-04   9.960206e-05   8.221576e-04   9.960206e-05   8.221576e-04  -9.999004e-01   8.221576e-04  
 3.703629e+06  -9.999003e-01   8.646474e-04   9.967374e-05   8.646474e-04   9.967374e-05   8.646474e-04  -9.999003e-01   8.646474e-04  
 3.874675e+06  -9.999002e-01   9.088999e-04   9.975223e-05   9.088999e-04   9.975223e-05   9.088999e-04  -9.999002e-01   9.088999e-04  
 4.053621e+06  -9.999002e-01   9.550055e-04   9.983817e-05   9.550055e-04   9.983817e-05   9.550055e-04  -9.999002e-01   9.550055e-04  
 4.240831e+06  -9.999001e-01   1.003058e-03   9.993227e-05   1.003058e-03   9.993227e-05   1.003058e-03  -9.999001e-01   1.003058e-03  
 4.436687e+06  -9.999000e-01   1.053156e-03   1.000353e-04   1.053156e-03   1.000353e-04   1.053156e-03  -9.999000e-01   1.053156e-03  
 4.641589e+06  -9.998999e-01   1.105400e-03   1.001481e-04   1.105400e-03   1.001481e-04   1.105400e-03  -9.998999e-01   1.105400e-03  
 4.855953e+06  -9.998997e-01   1.159899e-03   1.002715e-04   1.159899e-03   1.002715e-04   1.159899e-03  -9.998997e-01   1.159899e-03  
 5.080218e+06  -9.998996e-01   1.216762e-03   1.004067e-04   1.216762e-03   1.004067e-04   1.216762e-03  -9.998996e-01   1.216762e-03  
 5.314840e+06  -9.998994e-01   1.276105e-03   1.005547e-04   1.276105e-03   1.005547e-04   1.276105e-03  -9.998994e-01   1.276105e-03  
 5.560298e+06  -9.998993e-01   1.338050e-03   1.007166e-04   1.338050e-03   1.007166e-04   1.338050e-03  -9.998993e-01   1.338050e-03  
 5.817091e+06  -9.998991e-01   1.402724e-03   1.008939e-04   1.402724e-03   1.008939e-04   1.402724e-03  -9.998991e-01   1.402724e-03  
 6.085745e+06  -9.998989e-01   1.470256e-03   1.010879e-04   1.470256e-03   1.010879e-04   1.470256e-03  -9.998989e-01   1.470256e-03  
 6.366805e+06  -9.998987e-01   1.540787e-03   1.013003e-04   1.540787e-03   1.013003e-04   1.540787e-03  -9.998987e-01   1.540787e-03  
 6.660846e+06  -9.998985e-01   1.614458e-03   1.015328e-04   1.614458e-03   1.015328e-04   1.614458e-03  -9.998985e-01   1.614458e-03  
 6.968467e+06  -9.998982e-01   1.691421e-03   1.017872e-04   1.691421e-03   1.017872e-04   1.691421e-03  -9.998982e-01   1.691421e-03  
 7.290295e+06  -9.998979e-01   1.771833e-03   1.020658e-04   1.771833e-03   1.020658e-04   1.771833e-03  -9.998979e-01   1.771833e-03  
 7.626986e+06  -9.998976e-01   1.855856e-03   1.023706e-04   1.855856e-03   1.023706e-04   1.855856e-03  -9.998976e-01   1.855856e-03  
 7.979226e+06  -9.998973e-01   1.943663e-03   1.027043e-04   1.943663e-03   1.027043e-04   1.943663e-03  -9.998973e-01   1.943663e-03  
 8.347734e+06  -9.998969e-01   2.035433e-03   1.030695e-04   2.035433e-03   1.030695e-04   2.035433e-03  -9.998969e-01   2.035433e-03  
 8.733262e+06  -9.998965e-01   2.131352e-03   1.034692e-04   2.131352e-03   1.034692e-04   2.131352e-03  -9.998965e-01   2.131352e-03  
 9.136594e+06  -9.998961e-01   2.231617e-03   1.039067e-04   2.231617e-03   1.039067e-04   2.231617e-03  -9.998961e-01   2.231617e-03  
 9.558553e+06  -9.998956e-01   2.336430e-03   1.043855e-04   2.336430e-03   1.043855e-04   2.336430e-03  -9.998956e-01   2.336430e-03  
 1.000000e+07  -9.998951e-01   2.446007e-03   1.049096e-04   2.446007e-03   1.049096e-04   2.446007e-03  -9.998951e-01   2.446007e-03  
 1.046183e+07  -9.998945e-01   2.560571e-03   1.054833e-04   2.560571e-03   1.054833e-04   2.560571e-03  -9.998945e-01   2.560571e-03  
 1.094500e+07  -9.998939e-01   2.680355e-03   1.061111e-04   2.680355e-03   1.061111e-04   2.680355e-03  -9.998939e-01   2.680355e-03  
 1.145048e+07  -9.998932e-01   2.805603e-03   1.067983e-04   2.805603e-03   1.067983e-04   2.805603e-03  -9.998932e-01   2.805603e-03  
 1.197930e+07  -9.998924e-01   2.936570e-03   1.075504e-04   2.936570e-03   1.075504e-04   2.936570e-03  -9.998924e-01   2.936570e-03  
 1.253254e+07  -9.998916e-01   3.073524e-03   1.083736e-04   3.073524e-03   1.083736e-04   3.073524e-03  -9.998916e-01   3.073524e-03  
 1.311134e+07  -9.998907e-01   3.216744e-03   1.092746e-04   3.216744e-03   1.092746e-04   3.216744e-03  -9.998907e-01   3.216744e-03  
 1.371687e+07  -9.998897e-01   3.366522e-03   1.102608e-04   3.366522e-03   1.102608e-04   3.366522e-03  -9.998897e-01   3.366522e-03  
 1.435036e+07  -9.998887e-01   3.523162e-03   1.113401e-04   3.523162e-03   1.113401e-04   3.523162e-03  -9.998887e-01   3.523162e-03  
 1.501311e+07  -9.998875e-01   3.686984e-03   1.125214e-04   3.686984e-03   1.125214e-04   3.686984e-03  -9.998875e-01   3.686984e-03  
 1.570646e+07  -9.998862e-01   3.858323e-03   1.138144e-04   3.858323e-03   1.138144e-04   3.858323e-03  -9.998862e-01   3.858323e-03  
 1.643184e+07  -9.998848e-01   4.037526e-03   1.152295e-04   4.037526e-03   1.152295e-04   4.037526e-03  -9.998848e-01   4.037526e-03  
 1.719072e+07  -9.998832e-01   4.224960e-03   1.167784e-04   4.224960e-03   1.167784e-04   4.224960e-03  -9.998832e-01   4.224960e-03  
 1.798465e+07  -9.998815e-01   4.421007e-03   1.184737e-04   4.421007e-03   1.184737e-04   4.421007e-03  -9.998815e-01   4.421007e-03  
 1.881524e+07  -9.998797e-01   4.626065e-03   1.203291e-04   4.626065e-03   1.203291e-04   4.626065e-03  -9.998797e-01   4.626065e-03  
 1.968419e+07  -9.998776e-01   4.840553e-03   1.223599e-04   4.840553e-03   1.223599e-04   4.840553e-03  -9.998776e-01   4.840553e-03  
 2.059328e+07  -9.998754e-01   5.064908e-03   1.245825e-04   5.064908e-03   1.245825e-04   5.064908e-03  -9.998754e-01   5.064908e-03  
 2.154435e+07  -9.998730e-01   5.299587e-03   1.270152e-04   5.299587e-03   1.270152e-04   5.299587e-03  -9.998730e-01   5.299587e-03  
 2.253934e+07  -9.998703e-01   5.545068e-03   1.296778e-04   5.545068e-03   1.296778e-04   5.545068e-03  -9.998703e-01   5.545068e-03  
 2.358028e+07  -9.998674e-01   5.801852e-03   1.325920e-04   5.801852e-03   1.325920e-04   5.801852e-03  -9.998674e-01   5.801852e-03  
 2.466930e+07  -9.998642e-01   6.070460e-03   1.357815e-04   6.070460e-03   1.357815e-04   6.070460e-03  -9.998642e-01   6.070460e-03  
 2.580862e+07  -9.998607e-01   6.351441e-03   1.392725e-04   6.351441e-03   1.392725e-04   6.351441e-03  -9.998607e-01   6.351441e-03  
 2.700055e+07  -9.998569e-01   6.645367e-03   1.430933e-04   6.645367e-03   1.430933e-04   6.645367e-03  -9.998569e-01   6.645367e-03  
 2.824752e+07  -9.998527e-01   6.952837e-03   1.472751e-04   6.952837e-03   1.472751e-04   6.952837e-03  -9.998527e-01   6.952837e-03  
 2.955209e+07  -9.998481e-01   7.274476e-03   1.518521e-04   7.274476e-03   1.518521e-04   7.274476e-03  -9.998481e-01   7.274476e-03  
 3.091691e+07  -9.998431e-01   7.610940e-03   1.568615e-04   7.610940e-03   1.568615e-04   7.610940e-03  -9.998431e-01   7.610940e-03  
 3.234476e+07  -9.998377e-01   7.962913e-03   1.623443e-04   7.962913e-03   1.623443e-04   7.962913e-03  -9.998377e-01   7.962913e-03  
 3.383855e+07  -9.998317e-01   8.331112e-03   1.683452e-04   8.331112e-03   1.683452e-04   8.331112e-03  -9.998317e-01   8.331112e-03  
 3.540133e+07  -9.998251e-01   8.716287e-03   1.749130e-04   8.716287e-03   1.749130e-04   8.716287e-03  -9.998251e-01   8.716287e-03  
 3.703629e+07  -9.998179e-01   9.119222e-03   1.821014e-04   9.119222e-03   1.821014e-04   9.119222e-03  -9.998179e-01   9.119222e-03  
 3.874675e+07  -9.998100e-01   9.540736e-03   1.899690e-04   9.540736e-03   1.899690e-04   9.540736e-03  -9.998100e-01   9.540736e-03  
 4.053621e+07  -9.998014e-01   9.981687e-03   1.985799e-04   9.981687e-03   1.985799e-04   9.981687e-03  -9.998014e-01   9.981687e-03  
 4.240831e+07  -9.997920e-01   1.044297e-02   2.080044e-04   1.044297e-02   2.080044e-04   1.044297e-02  -9.997920e-01   1.044297e-02  
 4.436687e+07  -9.997817e-01   1.092553e-02   2.183193e-04   1.092553e-02   2.183193e-04   1.092553e-02  -9.997817e-01   1.092553e-02  
 4.641589e+07  -9.997704e-01   1.143034e-02   2.296087e-04   1.143034e-02   2.296087e-04   1.143034e-02  -9.997704e-01   1.143034e-02  
 4.855953e+07  -9.997580e-01   1.195843e-02   2.419647e-04   1.195843e-02   2.419647e-04   1.195843e-02  -9.997580e-01   1.195843e-02  
 5.080218e+07  -9.997445e-01   1.251087e-02   2.554879e-04   1.251087e-02   2.554879e-04   1.251087e-02  -9.997445e-01   1.251087e-02  
 5.314840e+07  -9.997297e-01   1.308879e-02   2.702887e-04   1.308879e-02   2.702887e-04   1.308879e-02  -9.997297e-01   1.308879e-02  
 5.560298e+07  -9.997135e-01   1.369335e-02   2.864876e-04   1.369335e-02   2.864876e-04   1.369335e-02  -9.997135e-01   1.369335e-02  
 5.817091e+07  -9.996958e-01   1.432579e-02   3.042168e-04   1.432579e-02   3.042168e-04   1.432579e-02  -9.996958e-01   1.432579e-02  
 6.085745e+07  -9.996764e-01   1.498739e-02   3.236206e-04   1.498739e-02   3.236206e-04   1.498739e-02  -9.996764e-01   1.498739e-02  
 6.366805e+07  -9.996551e-01   1.567949e-02   3.448572e-04   1.567949e-02   3.448572e-04   1.567949e-02  -9.996551e-01   1.567949e-02  
 6.660846e+07  -9.996319e-01   1.640349e-02   3.680996e-04   1.640349e-02   3.680996e-04   1.640349e-02  -9.996319e-01   1.640349e-02  
 6.968467e+07  -9.996065e-01   1.716086e-02   3.935372e-04   1.716086e-02   3.935372e-04   1.716086e-02  -9.996065e-01   1.716086e-02  
 7.290295e+07  -9.995786e-01   1.795314e-02   4.213772e-04   1.795314e-02   4.213772e-04   1.795314e-02  -9.995786e-01   1.795314e-02  
 7.626986e+07  -9.995482e-01   1.878192e-02   4.518462e-04   1.878192e-02   4.518462e-04   1.878192e-02  -9.995482e-01   1.878192e-02  
 7.979226e+07  -9.995148e-01   1.964889e-02   4.851925e-04   1.964889e-02   4.851925e-04   1.964889e-02  -9.995148e-01   1.964889e-02  
 8.347734e+07  -9.994783e-01   2.055580e-02   5.216874e-04   2.055580e-02   5.216874e-04   2.055580e-02  -9.994783e-01   2.055580e-02  
 8.733262e+07  -9.994384e-01   2.150447e-02   5.616280e-04   2.150447e-02   5.616280e-04   2.150447e-02  -9.994384e-01   2.150447e-02  
 9.136594e+07  -9.993947e-01   2.249682e-02   6.053393e-04   2.249682e-02   6.053393e-04   2.249682e-02  -9.993947e-01   2.249682e-02  
 9.558553e+07  -9.993468e-01   2.353484e-02   6.531770e-04   2.353484e-02   6.531770e-04   2.353484e-02  -9.993468e-01   2.353484e-02  
 1.000000e+08  -9.992945e-01   2.462064e-02   7.055300e-04   2.462064e-02   7.055300e-04   2.462064e-02  -9.992945e-01   2.462064e-02  
 1.046183e+08  -9.992372e-01   2.575639e-02   7.628242e-04   2.575639e-02   7.628242e-04   2.575639e-02  -9.992372e-01   2.575639e-02  
 1.094500e+08  -9.991745e-01   2.694437e-02   8.255251e-04   2.694437e-02   8.255251e-04   2.694437e-02  -9.991745e-01   2.694437e-02  
 1.145048e+08  -9.991059e-01   2.818697e-02   8.941422e-04   2.818697e-02   8.941422e-04   2.818697e-02  -9.991059e-01   2.818697e-02  
 1.197930e+08  -9.990308e-01   2.948666e-02   9.692327e-04   2.948666e-02   9.692327e-04   2.948666e-02  -9.990308e-01   2.948666e-02  
 1.253254e+08  -9.989486e-01   3.084605e-02   1.051406e-03   3.084605e-02   1.051406e-03   3.084605e-02  -9.989486e-01   3.084605e-02  
 1.311134e+08  -9.988587e-01   3.226785e-02   1.141330e-03   3.226785e-02   1.141330e-03   3.226785e-02  -9.988587e-01   3.226785e-02  
 1.371687e+08  -9.987603e-01   3.375489e-02   1.239733e-03   3.375489e-02   1.239733e-03   3.375489e-02  -9.987603e-01   3.375489e-02  
 1.435036e+08  -9.986526e-01   3.531012e-02   1.347412e-03   3.531012e-02   1.347412e-03   3.531012e-02  -9.986526e-01   3.531012e-02  
 1.501311e+08  -9.985348e-01   3.693661e-02   1.465241e-03   3.693661e-02   1.465241e-03   3.693661e-02  -9.985348e-01   3.693661e-02  
 1.570646e+08  -9.984058e-01   3.863759e-02   1.594173e-03   3.863759e-02   1.594173e-03   3.863759e-02  -9.984058e-01   3.863759e-02  
 1.643184e+08  -9.982647e-01   4.041639e-02   1.735250e-03   4.041639e-02   1.735250e-03   4.041639e-02  -9.982647e-01   4.041639e-02  
 1.719072e+08  -9.981104e-01   4.227652e-02   1.889614e-03   4.227652e-02   1.889614e-03   4.227652e-02  -9.981104e-01   4.227652e-02  
 1.798465e+08  -9.979415e-01   4.422161e-02   2.058510e-03   4.422161e-02   2.058510e-03   4.422161e-02  -9.979415e-01   4.422161e-02  
 1.881524e+08  -9.977567e-01   4.625543e-02   2.243302e-03   4.625543e-02   2.243302e-03   4.625543e-02  -9.977567e-01   4.625543e-02  
 1.968419e+08  -9.975545e-01   4.838195e-02   2.445477e-03   4.838195e-02   2.445477e-03   4.838195e-02  -9.975545e-01   4.838195e-02  
 2.059328e+08  -9.973333e-01   5.060525e-02   2.666665e-03   5.060525e-02   2.666665e-03   5.060525e-02  -9.973333e-01   5.060525e-02  
 2.154435e+08  -9.970914e-01   5.292961e-02   2.908642e-03   5.292961e-02   2.908642e-03   5.292961e-02  -9.970914e-01   5.292961e-02  
 2.253934e+08  -9.968266e-01   5.535945e-02   3.173351e-03   5.535945e-02   3.173351e-03   5.535945e-02  -9.968266e-01   5.535945e-02  
 2.358028e+08  -9.965371e-01   5.789939e-02   3.462915e-03   5.789939e-02   3.462915e-03   5.789939e-02  -9.965371e-01   5.789939e-02  
 2.466930e+08  -9.962204e-01   6.055420e-02   3.779649e-03   6.055420e-02   3.779649e-03   6.055420e-02  -9.962204e-01   6.055420e-02  
 2.580862e+08  -9.958739e-01   6.332883e-02   4.126084e-03   6.332883e-02   4.126084e-03   6.332883e-02  -9.958739e-01   6.332883e-02  
 2.700055e+08  -9.954950e-01   6.622843e-02   4.504981e-03   6.622843e-02   4.504981e-03   6.622843e-02  -9.954950e-01   6.622843e-02  
 2.824752e+08  -9.950806e-01   6.925831e-02   4.919353e-03   6.925831e-02   4.919353e-03   6.925831e-02  -9.950806e-01   6.925831e-02  
 2.955209e+08  -9.946275e-01   7.242396e-02   5.372488e-03   7.242396e-02   5.372488e-03   7.242396e-02  -9.946275e-01   7.242396e-02  
 3.091691e+08  -9.941320e-01   7.573105e-02   5.867971e-03   7.573105e-02   5.867971e-03   7.573105e-02  -9.941320e-01   7.573105e-02  
 3.234476e+08  -9.935903e-01   7.918545e-02   6.409712e-03   7.918545e-02   6.409712e-03   7.918545e-02  -9.935903e-01   7.918545e-02  
 3.383855e+08  -9.929980e-01   8.279318e-02   7.001971e-03   8.279318e-02   7.001971e-03   8.279318e-02  -9.929980e-01   8.279318e-02  
 3.540133e+08  -9.923506e-01   8.656042e-02   7.649390e-03   8.656042e-02   7.649390e-03   8.656042e-02  -9.923506e-01   8.656042e-02  
 3.703629e+08  -9.916430e-01   9.049355e-02   8.357022e-03   9.049355e-02   8.357022e-03   9.049355e-02  -9.916430e-01   9.049355e-02  
 3.874675e+08  -9.908696e-01   9.459907e-02   9.130370e-03   9.459907e-02   9.130370e-03   9.459907e-02  -9.908696e-01   9.459907e-02  
 4.053621e+08  -9.900246e-01   9.888361e-02   9.975417e-03   9.888361e-02   9.975417e-03   9.888361e-02  -9.900246e-01   9.888361e-02  
 4.240831e+08  -9.891013e-01   1.033540e-01   1.089867e-02   1.033540e-01   1.089867e-02   1.033540e-01  -9.891013e-01   1.033540e-01  
 4.436687e+08  -9.880928e-01   1.080170e-01   1.190720e-02   1.080170e-01   1.190720e-02   1.080170e-01  -9.880928e-01   1.080170e-01  
 4.641589e+08  -9.869913e-01   1.128797e-01   1.300868e-02   1.128797e-01   1.300868e-02   1.128797e-01  -9.869913e-01   1.128797e-01  
 4.855953e+08  -9.857886e-01   1.179489e-01   1.421144e-02   1.179489e-01   1.421144e-02   1.179489e-01  -9.857886e-01   1.179489e-01  
 5.080218e+08  -9.844755e-01   1.232319e-01   1.552450e-02   1.232319e-01   1.552450e-02   1.232319e-01  -9.844755e-01   1.232319e-01  
 5.314840e+08  -9.830424e-01   1.287355e-01   1.695765e-02   1.287355e-01   1.695765e-02   1.287355e-01  -9.830424e-01   1.287355e-01  
 5.560298e+08  -9.814786e-01   1.344668e-01   1.852145e-02   1.344668e-01   1.852145e-02   1.344668e-01  -9.814786e-01   1.344668e-01  
 5.817091e+08  -9.797727e-01   1.404324e-01   2.022734e-02   1.404324e-01   2.022734e-02   1.404324e-01  -9.797727e-01   1.404324e-01  
 6.085745e+08  -9.779124e-01   1.466391e-01   2.208765e-02   1.466391e-01   2.208765e-02   1.466391e-01  -9.779124e-01   1.466391e-01  
 6.366805e+08  -9.758843e-01   1.530933e-01   2.411567e-02   1.530933e-01   2.411567e-02   1.530933e-01  -9.758843e-01   1.530933e-01  
 6.660846e+08  -9.736743e-01   1.598010e-01   2.632573e-02   1.598010e-01   2.632573e-02   1.598010e-01  -9.736743e-01   1.598010e-01  
 6.968467e+08  -9.712668e-01   1.667678e-01   2.873319e-02   1.667678e-01   2.873319e-02   1.667678e-01  -9.712668e-01   1.667678e-01  
 7.290295e+08  -9.686455e-01   1.739989e-01   3.135455e-02   1.739989e-01   3.135455e-02   1.739989e-01  -9.686455e-01   1.739989e-01  
 7.626986e+08  -9.657926e-01   1.814986e-01   3.420745e-02   1.814986e-01   3.420745e-02   1.814986e-01  -9.657926e-01   1.814986e-01  
 7.979226e+08  -9.626893e-01   1.892708e-01   3.731075e-02   1.892708e-01   3.731075e-02   1.892708e-01  -9.626893e-01   1.892708e-01  
 8.347734e+08  -9.593155e-01   1.973180e-01   4.068453e-02   1.973180e-01   4.068453e-02   1.973180e-01  -9.593155e-01   1.973180e-01  
 8.733262e+08  -9.556499e-01   2.056421e-01   4.435014e-02   2.056421e-01   4.435014e-02   2.056421e-01  -9.556499e-01   2.056421e-01  
 9.136594e+08  -9.516698e-01   2.142434e-01   4.833017e-02   2.142434e-01   4.833017e-02   2.142434e-01  -9.516698e-01   2.142434e-01  
 9.558553e+08  -9.473515e-01   2.231208e-01   5.264848e-02   2.231208e-01   5.264848e-02   2.231208e-01  -9.473515e-01   2.231208e-01  
 1.000000e+09  -9.426698e-01   2.322718e-01   5.733017e-02   2.322718e-01   5.733017e-02   2.322718e-01  -9.426698e-01   2.322718e-01  
 1.046183e+09  -9.375985e-01   2.416916e-01   6.240154e-02   2.416916e-01   6.240154e-02   2.416916e-01  -9.375985e-01   2.416916e-01  
 1.094500e+09  -9.321100e-01   2.513736e-01   6.788996e-02   2.513736e-01   6.788996e-02   2.513736e-01  -9.321100e-01   2.513736e-01  
 1.145048e+09  -9.261761e-01   2.613088e-01   7.382386e-02   2.613088e-01   7.382386e-02   2.613088e-01  -9.261761e-01   2.613088e-01  
 1.197930e+09  -9.197675e-01   2.714853e-01   8.023252e-02   2.714853e-01   8.023252e-02   2.714853e-01  -9.197675e-01   2.714853e-01  
 1.253254e+09  -9.128541e-01   2.818886e-01   8.714589e-02   2.818886e-01   8.714589e-02   2.818886e-01  -9.128541e-01   2.818886e-01  
 1.311134e+09  -9.054056e-01   2.925009e-01   9.459443e-02   2.925009e-01   9.459443e-02   2.925009e-01  -9.054056e-01   2.925009e-01  
 1.371687e+09  -8.973912e-01   3.033009e-01   1.026088e-01   3.033009e-01   1.026088e-01   3.033009e-01  -8.973912e-01   3.033009e-01  
 1.435036e+09  -8.887806e-01   3.142638e-01   1.112194e-01   3.142638e-01   1.112194e-01   3.142638e-01  -8.887806e-01   3.142638e-01  
 1.501311e+09  -8.795437e-01   3.253606e-01   1.204563e-01   3.253606e-01   1.204563e-01   3.253606e-01  -8.795437e-01   3.253606e-01  
 1.570646e+09  -8.696516e-01   3.365586e-01   1.303484e-01   3.365586e-01   1.303484e-01   3.365586e-01  -8.696516e-01   3.365586e-01  
 1.643184e+09  -8.590765e-01   3.478205e-01   1.409235e-01   3.478205e-01   1.409235e-01   3.478205e-01  -8.590765e-01   3.478205e-01  
 1.719072e+09  -8.477931e-01   3.591046e-01   1.522069e-01   3.591046e-01   1.522069e-01   3.591046e-01  -8.477931e-01   3.591046e-01  
 1.798465e+09  -8.357782e-01   3.703651e-01   1.642218e-01   3.703651e-01   1.642218e-01   3.703651e-01  -8.357782e-01   3.703651e-01  
 1.881524e+09  -8.230124e-01   3.815515e-01   1.769876e-01   3.815515e-01   1.769876e-01   3.815515e-01  -8.230124e-01   3.815515e-01  
 1.968419e+09  -8.094798e-01   3.926094e-01   1.905202e-01   3.926094e-01   1.905202e-01   3.926094e-01  -8.094798e-01   3.926094e-01  
 2.059328e+09  -7.951695e-01   4.034802e-01   2.048305e-01   4.034802e-01   2.048305e-01   4.034802e-01  -7.951695e-01   4.034802e-01  
 2.154435e+09  -7.800758e-01   4.141019e-01   2.199242e-01   4.141019e-01   2.199242e-01   4.141019e-01  -7.800758e-01   4.141019e-01  
 2.253934e+09  -7.641992e-01   4.244092e-01   2.358008e-01   4.244092e-01   2.358008e-01   4.244092e-01  -7.641992e-01   4.244092e-01  
 2.358028e+09  -7.475468e-01   4.343347e-01   2.524532e-01   4.343347e-01   2.524532e-01   4.343347e-01  -7.475468e-01   4.343347e-01  
 2.466930e+09  -7.301333e-01   4.438090e-01   2.698667e-01   4.438090e-01   2.698667e-01   4.438090e-01  -7.301333e-01   4.438090e-01  
 2.580862e+09  -7.119810e-01   4.527622e-01   2.880190e-01   4.527622e-01   2.880190e-01   4.527622e-01  -7.119810e-01   4.527622e-01  
 2.700055e+09  -6.931204e-01   4.611246e-01   3.068796e-01   4.611246e-01   3.068796e-01   4.611246e-01  -6.931204e-01   4.611246e-01  
 2.824752e+09  -6.735906e-01   4.688280e-01   3.264094e-01   4.688280e-01   3.264094e-01   4.688280e-01  -6.735906e-01   4.688280e-01  
 2.955209e+09  -6.534390e-01   4.758065e-01   3.465610e-01   4.758065e-01   3.465610e-01   4.758065e-01  -6.534390e-01   4.758065e-01  
 3.091691e+09  -6.327213e-01   4.819984e-01   3.672787e-01   4.819984e-01   3.672787e-01   4.819984e-01  -6.327213e-01   4.819984e-01  
 3.234476e+09  -6.115011e-01   4.873469e-01   3.884989e-01   4.873469e-01   3.884989e-01   4.873469e-01  -6.115011e-01   4.873469e-01  
 3.383855e+09  -5.898493e-01   4.918015e-01   4.101507e-01   4.918015e-01   4.101507e-01   4.918015e-01  -5.898493e-01   4.918015e-01  
 3.540133e+09  -5.678433e-01   4.953192e-01   4.321567e-01   4.953192e-01   4.321567e-01   4.953192e-01  -5.678433e-01   4.953192e-01  
 3.703629e+09  -5.455659e-01   4.978652e-01   4.544341e-01   4.978652e-01   4.544341e-01   4.978652e-01  -5.455659e-01   4.978652e-01  
 3.874675e+09  -5.231044e-01   4.994141e-01   4.768956e-01   4.994141e-01   4.768956e-01   4.994141e-01  -5.231044e-01   4.994141e-01  
 4.053621e+09  -5.005489e-01   4.999502e-01   4.994511e-01   4.999502e-01   4.994511e-01   4.999502e-01  -5.005489e-01   4.999502e-01  
 4.240831e+09  -4.779909e-01   4.994680e-01   5.220091e-01   4.994680e-01   5.220091e-01   4.994680e-01  -4.779909e-01   4.994680e-01  
 4.436687e+09  -4.555221e-01   4.979725e-01   5.444779e-01   4.979725e-01   5.444779e-01   4.979725e-01  -4.555221e-01   4.979725e-01  
 4.641589e+09  -4.332328e-01   4.954788e-01   5.667672e-01   4.954788e-01   5.667672e-01   4.954788e-01  -4.332328e-01   4.954788e-01  
 4.855953e+09  -4.112103e-01   4.920119e-01   5.887897e-01   4.920119e-01   5.887897e-01   4.920119e-01  -4.112103e-01   4.920119e-01  
 5.080218e+09  -3.895377e-01   4.876059e-01   6.104623e-01   4.876059e-01   6.104623e-01   4.876059e-01  -3.895377e-01   4.876059e-01  
 5.314840e+09  -3.682928e-01   4.823036e-01   6.317072e-01   4.823036e-01   6.317072e-01   4.823036e-01  -3.682928e-01   4.823036e-01  
 5.560298e+09  -3.475468e-01   4.761550e-01   6.524532e-01   4.761550e-01   6.524532e-01   4.761550e-01  -3.475468e-01   4.761550e-01  
 5.817091e+09  -3.273637e-01   4.692167e-01   6.726363e-01   4.692167e-01   6.726363e-01   4.692167e-01  -3.273637e-01   4.692167e-01  
