!Murata Part Number: GRT21BR60J476ME13
!These Parameters are Measured in Series Mode Connection
!       o--ll--o
!Port1            Port2
!       o------o
!Operation Temp=25[degC], DC Bias Voltage=0[V]
!Freq. Start=100[Hz] Stop=6[GHz], 401[Steps]
!Data Generated on Dec 2, 2019
# Hz S RI R 50
!Freq.(Hz) S11(Real) S11(Imag) S21(Real) S21(Imag) S12(Real) S12(Imag) S22(Real) S22(Imag)
100.0 0.1675024438805977 -0.36640382441621433 0.8324975561194022 0.36640382441621433 0.8324975561194022 0.36640382441621433 0.1675024438805977 -0.36640382441621433
104.57921513303334 0.15570278971787194 -0.3555827206715958 0.8442972102821281 0.3555827206715958 0.8442972102821281 0.3555827206715958 0.15570278971787194 -0.3555827206715958
109.3681223784127 0.1445926122737924 -0.3447278508051332 0.8554073877262075 0.3447278508051332 0.8554073877262075 0.3447278508051332 0.1445926122737924 -0.3447278508051332
114.3763239890794 0.13415250143657828 -0.33388209970191096 0.8658474985634218 0.33388209970191096 0.8658474985634218 0.33388209970191096 0.13415250143657828 -0.33388209970191096
119.61386192579457 0.1243604783894143 -0.3230845988346348 0.8756395216105856 0.3230845988346348 0.8756395216105856 0.3230845988346348 0.1243604783894143 -0.3230845988346348
125.09123799230618 0.11519251430757481 -0.31237070284663404 0.8848074856924251 0.31237070284663404 0.8848074856924251 0.31237070284663404 0.11519251430757481 -0.31237070284663404
130.8194348925486 0.10662301451094273 -0.30177202757432 0.893376985489057 0.30177202757432 0.893376985489057 0.30177202757432 0.10662301451094273 -0.30177202757432
136.8099382520969 0.0986252629704403 -0.2913165397930765 0.9013747370295596 0.2913165397930765 0.9013747370295596 0.2913165397930765 0.0986252629704403 -0.2913165397930765
143.0747596480305 0.09117182397843335 -0.28102868916011836 0.9088281760215667 0.28102868916011836 0.9088281760215667 0.28102868916011836 0.09117182397843335 -0.28102868916011836
149.6264606933842 0.08423489946841933 -0.270929573306328 0.9157651005315807 0.270929573306328 0.9157651005315807 0.270929573306328 0.08423489946841933 -0.270929573306328
156.47817822447783 0.07778664188509385 -0.2610371277206452 0.9222133581149059 0.2610371277206452 0.9222133581149059 0.2610371277206452 0.07778664188509385 -0.2610371277206452
163.643650641628 0.07179942365643631 -0.25136633290463994 0.9282005763435638 0.25136633290463994 0.9282005763435638 0.25136633290463994 0.07179942365643631 -0.25136633290463994
171.13724545605763 0.06624606521304278 -0.2419294321890595 0.9337539347869571 0.2419294321890595 0.9337539347869571 0.2419294321890595 0.06624606521304278 -0.2419294321890595
178.97398809823787 0.061100024155099235 -0.23273615454570268 0.9388999758449007 0.23273615454570268 0.9388999758449007 0.23273615454570268 0.061100024155099235 -0.23273615454570268
187.1695920454257 0.05633554860967829 -0.22379393765470468 0.9436644513903216 0.22379393765470468 0.9436644513903216 0.22379393765470468 0.05633554860967829 -0.22379393765470468
195.74049032880657 0.05192779807992164 -0.21510814736716208 0.9480722019200784 0.21510814736716208 0.9480722019200784 0.21510814736716208 0.05192779807992164 -0.21510814736716208
204.70386848341695 0.04785293519407542 -0.20668229051338263 0.9521470648059246 0.20668229051338263 0.9521470648059246 0.20668229051338263 0.04785293519407542 -0.20668229051338263
214.0776990069143 0.044088191746750986 -0.19851821873360795 0.9559118082532492 0.19851821873360795 0.9559118082532492 0.19851821873360795 0.044088191746750986 -0.19851821873360795
223.88077739628844 0.040611912315816213 -0.19061632164353137 0.9593880876841838 0.19061632164353137 0.9593880876841838 0.19061632164353137 0.040611912315816213 -0.19061632164353137
234.132759834772 0.03740357856182299 -0.182975708189664 0.962596421438177 0.182975708189664 0.962596421438177 0.182975708189664 0.03740357856182299 -0.182975708189664
244.85420260451448 0.034443817095373044 -0.1755943755022844 0.9655561829046269 0.1755943755022844 0.9655561829046269 0.1755943755022844 0.034443817095373044 -0.1755943755022844
256.06660330404856 0.03171439355029459 -0.16846936492223888 0.9682856064497056 0.16846936492223888 0.9682856064497056 0.16846936492223888 0.03171439355029459 -0.16846936492223888
267.792443953192 0.029198195242355004 -0.16159690517028807 0.970801804757645 0.16159690517028807 0.970801804757645 0.16159690517028807 0.029198195242355004 -0.16159690517028807
280.0552360718164 0.026879204536461223 -0.154972542853375 0.9731207954635387 0.154972542853375 0.9731207954635387 0.154972542853375 0.026879204536461223 -0.154972542853375
292.87956782286926 0.02474246479871646 -0.1485912606710536 0.9752575352012836 0.1485912606710536 0.9752575352012836 0.1485912606710536 0.02474246479871646 -0.1485912606710536
306.2911533141767 0.022774040579265558 -0.14244758380725972 0.9772259594207344 0.14244758380725972 0.9772259594207344 0.14244758380725972 0.022774040579265558 -0.14244758380725972
320.3168841578819 0.02096097346104691 -0.1365356750770506 0.9790390265389529 0.1365356750770506 0.9790390265389529 0.1365356750770506 0.02096097346104691 -0.1365356750770506
334.9848833909005 0.019291234819756045 -0.1308494194534036 0.9807087651802439 0.1308494194534036 0.9807087651802439 0.1308494194534036 0.019291234819756045 -0.1308494194534036
350.32456186451077 0.01775367657123936 -0.12538249863303874 0.9822463234287605 0.12538249863303874 0.9822463234287605 0.12538249863303874 0.01775367657123936 -0.12538249863303874
366.36667721614316 0.01633798083268095 -0.12012845631857563 0.9836620191673191 0.12012845631857563 0.9836620191673191 0.12012845631857563 0.01633798083268095 -0.12012845631857563
383.1433955416162 0.015034609291042266 -0.11508075490180099 0.9849653907089576 0.11508075490180099 0.9849653907089576 0.11508075490180099 0.015034609291042266 -0.11508075490180099
400.68835589147574 0.013834752953631117 -0.11023282423272483 0.9861652470463689 0.11023282423272483 0.9861652470463689 0.11023282423272483 0.013834752953631117 -0.11023282423272483
419.03673772076064 0.012730282848784975 -0.10557810315348988 0.9872697171512149 0.10557810315348988 0.9872697171512149 0.10557810315348988 0.012730282848784975 -0.10557810315348988
438.225331427439 0.011713702147142076 -0.10111007446611361 0.9882862978528582 0.10111007446611361 0.9882862978528582 0.10111007446611361 0.011713702147142076 -0.10111007446611361
458.2926121209498 0.01077810008405292 -0.09682229398877029 0.989221899915947 0.09682229398877029 0.989221899915947 0.09682229398877029 0.01077810008405292 -0.09682229398877029
479.2788167687661 0.0099171079801933 -0.09270841433667369 0.9900828920198068 0.09270841433667369 0.9900828920198068 0.09270841433667369 0.0099171079801933 -0.09270841433667369
501.22602487566456 0.009124857579855351 -0.08876220404025383 0.9908751424201447 0.08876220404025383 0.9908751424201447 0.08876220404025383 0.009124857579855351 -0.08876220404025383
524.1782428574726 0.008395941854741405 -0.08497756258494511 0.9916040581452584 0.08497756258494511 0.9916040581452584 0.08497756258494511 0.008395941854741405 -0.08497756258494511
548.1814922784702 0.007725378355796889 -0.08134853192349277 0.9922746216442032 0.08134853192349277 0.9922746216442032 0.08134853192349277 0.007725378355796889 -0.08134853192349277
573.2839021293739 0.007108575137337573 -0.07786930497356366 0.9928914248626621 0.07786930497356366 0.9928914248626621 0.07786930497356366 0.007108575137337573 -0.07786930497356366
599.5358053309263 0.006541299227125491 -0.07453423157131946 0.9934587007728747 0.07453423157131946 0.9934587007728747 0.07453423157131946 0.006541299227125491 -0.07453423157131946
626.9898396565933 0.006019647573661084 -0.07133782230650995 0.9939803524263386 0.07133782230650995 0.9939803524263386 0.07133782230650995 0.006019647573661084 -0.07133782230650995
655.7010532767296 0.005540020368060434 -0.06827475061783786 0.9944599796319396 0.06827475061783786 0.9944599796319396 0.06827475061783786 0.005540020368060434 -0.06827475061783786
685.7270151358366 0.005099096612423407 -0.06533985348020616 0.9949009033875765 0.06533985348020616 0.9949009033875765 0.06533985348020616 0.005099096612423407 -0.06533985348020616
717.1279303842347 0.004693811789179634 -0.06252813096934554 0.9953061882108202 0.06252813096934554 0.9953061882108202 0.06252813096934554 0.004693811789179634 -0.06252813096934554
749.9667610955984 0.00432133747582636 -0.05983474494544536 0.9956786625241738 0.05983474494544536 0.9956786625241738 0.05983474494544536 0.00432133747582636 -0.05983474494544536
784.3093525124082 0.003979062745809587 -0.05725501705678446 0.9960209372541905 0.05725501705678446 0.9960209372541905 0.05725501705678446 0.003979062745809587 -0.05725501705678446
820.2245650724522 0.003664577197958688 -0.054784426227707864 0.9963354228020413 0.054784426227707864 0.9963354228020413 0.054784426227707864 0.003664577197958688 -0.054784426227707864
857.7844124811068 0.003375655462711479 -0.05241860576306365 0.9966243445372883 0.05241860576306365 0.9966243445372883 0.05241860576306365 0.003375655462711479 -0.05241860576306365
897.0642061062428 0.0031102430422277586 -0.050153340173576484 0.9968897569577723 0.050153340173576484 0.9968897569577723 0.050153340173576484 0.0031102430422277586 -0.050153340173576484
938.1427059852851 0.0028664433523329863 -0.04798456180351813 0.9971335566476669 0.04798456180351813 0.9971335566476669 0.04798456180351813 0.0028664433523329863 -0.04798456180351813
981.102278747212 0.002642505846140919 -0.045908347323182996 0.9973574941538591 0.045908347323182996 0.9973574941538591 0.045908347323182996 0.002642505846140919 -0.045908347323182996
1026.0290627661395 0.002436815111411943 -0.04392091413369067 0.9975631848885881 0.04392091413369067 0.9975631848885881 0.04392091413369067 0.002436815111411943 -0.04392091413369067
1073.0131408776467 0.002247880845617304 -0.042018616720036546 0.9977521191543828 0.042018616720036546 0.9977521191543828 0.042018616720036546 0.002247880845617304 -0.042018616720036546
1122.1487210041523 0.0020743286238644213 -0.04019794297956823 0.9979256713761354 0.04019794297956823 0.9979256713761354 0.04019794297956823 0.0020743286238644213 -0.04019794297956823
1173.5343250515148 0.0019148913850088611 -0.03845551054666327 0.9980851086149912 0.03845551054666327 0.9980851086149912 0.03845551054666327 0.0019148913850088611 -0.03845551054666327
1227.2729864556143 0.001768401570273234 -0.03678806312981397 0.9982315984297269 0.03678806312981397 0.9982315984297269 0.03678806312981397 0.001768401570273234 -0.03678806312981397
1283.4724567750195 0.0016337838564562462 -0.03519246687414264 0.9983662161435436 0.03519246687414264 0.9983662161435436 0.03519246687414264 0.0016337838564562462 -0.03519246687414264
1342.245421743976 0.0015100484323696639 -0.03366570676016986 0.9984899515676304 0.03366570676016986 0.9984899515676304 0.03366570676016986 0.0015100484323696639 -0.03366570676016986
1403.7097272189235 0.0013962847725716887 -0.03220488304810647 0.9986037152274284 0.03220488304810647 0.9986037152274284 0.03220488304810647 0.0013962847725716887 -0.03220488304810647
1467.9886154715937 0.001291655866898754 -0.03080720777575966 0.9987083441331015 0.03080720777575966 0.9987083441331015 0.03080720777575966 0.001291655866898754 -0.03080720777575966
1535.2109723024755 0.0011953928678885347 -0.029470001317118896 0.9988046071321114 0.029470001317118896 0.9988046071321114 0.029470001317118896 0.0011953928678885347 -0.029470001317118896
1605.5115854701387 0.0011067901211053671 -0.028190689007662077 0.9988932098788948 0.028190689007662077 0.9988932098788948 0.028190689007662077 0.0011067901211053671 -0.028190689007662077
1679.0314149545911 0.0010252005458010669 -0.026966797841289913 0.998974799454199 0.026966797841289913 0.998974799454199 0.026966797841289913 0.0010252005458010669 -0.026966797841289913
1755.9178755965756 9.500313354423924E-4 -0.02579595324250348 0.9990499686645576 0.02579595324250348 0.9990499686645576 0.02579595324250348 9.500313354423924E-4 -0.02579595324250348
1836.3251326795319 8.807399495726313E-4 -0.024675875915975976 0.9991192600504273 0.024675875915975976 0.9991192600504273 0.024675875915975976 8.807399495726313E-4 -0.024675875915975976
1920.4144110468878 8.168303703919383E-4 -0.023604378774068627 0.9991831696296082 0.023604378774068627 0.9991831696296082 0.023604378774068627 8.168303703919383E-4 -0.023604378774068627
2008.3543183745 7.578495994547934E-4 -0.022579363941167115 0.9992421504005451 0.022579363941167115 0.9992421504005451 0.022579363941167115 7.578495994547934E-4 -0.022579363941167115
2100.321183246434 7.033843720756285E-4 -0.02159881983206717 0.9992966156279244 0.02159881983206717 0.9992966156279244 0.02159881983206717 7.033843720756285E-4 -0.02159881983206717
2196.4994087119585 6.530580694472587E-4 -0.020660818300125196 0.9993469419305526 0.020660818300125196 0.9993469419305526 0.020660818300125196 6.530580694472587E-4 -0.020660818300125196
2297.0818420326846 6.065278111101288E-4 -0.01976351184963524 0.9993934721888897 0.01976351184963524 0.9993934721888897 0.01976351184963524 6.065278111101288E-4 -0.01976351184963524
2402.270161361206 5.634817132180219E-4 -0.018905130906006592 0.999436518286782 0.018905130906006592 0.999436518286782 0.018905130906006592 5.634817132180219E-4 -0.018905130906006592
2512.2752801266033 5.236363009420221E-4 -0.018083981136890734 0.9994763636990579 0.018083981136890734 0.9994763636990579 0.018083981136890734 5.236363009420221E-4 -0.018083981136890734
2627.3177699376165 4.8673406622091645E-4 -0.017298440817501006 0.999513265933779 0.017298440817501006 0.999513265933779 0.017298440817501006 4.8673406622091645E-4 -0.017298440817501006
2747.6283028514745 4.5254116476441065E-4 -0.016546958233998772 0.9995474588352355 0.016546958233998772 0.9995474588352355 0.016546958233998772 4.5254116476441065E-4 -0.016546958233998772
2873.4481138951564 4.2084524860232437E-4 -0.01582804911995541 0.9995791547513978 0.01582804911995541 0.9995791547513978 0.01582804911995541 4.2084524860232437E-4 -0.01582804911995541
3005.0294847665045 3.914534324171419E-4 -0.015140294122459548 0.9996085465675828 0.015140294122459548 0.9996085465675828 0.015140294122459548 3.914534324171419E-4 -0.015140294122459548
3142.6362496850466 3.641903932958886E-4 -0.014482336296302224 0.9996358096067041 0.014482336296302224 0.9996358096067041 0.014482336296302224 3.641903932958886E-4 -0.014482336296302224
3286.544324406816 3.3889660432850005E-4 -0.013852878626688993 0.9996611033956714 0.013852878626688993 0.9996611033956714 0.013852878626688993 3.3889660432850005E-4 -0.013852878626688993
3437.0422594639017 3.154267026511561E-4 -0.013250681582929627 0.9996845732973488 0.013250681582929627 0.9996845732973488 0.013250681582929627 3.154267026511561E-4 -0.013250681582929627
3594.431818738024 2.93647992123358E-4 -0.012674560707383212 0.9997063520078764 0.012674560707383212 0.9997063520078764 0.012674560707383212 2.93647992123358E-4 -0.012674560707383212
3759.0285845282415 2.7343907992243753E-4 -0.012123384245445283 0.9997265609200774 0.012123384245445283 0.9997265609200774 0.012123384245445283 2.7343907992243753E-4 -0.012123384245445283
3931.162590326006 2.5468864506108174E-4 -0.011596070823447682 0.9997453113549388 0.011596070823447682 0.9997453113549388 0.011596070823447682 2.5468864506108174E-4 -0.011596070823447682
4111.17898256636 2.372943353272511E-4 -0.011091587181936816 0.9997627056646728 0.011091587181936816 0.9997627056646728 0.011091587181936816 2.372943353272511E-4 -0.011091587181936816
4299.438712682125 2.211617875631734E-4 -0.010608945971884874 0.9997788382124368 0.010608945971884874 0.9997788382124368 0.010608945971884874 2.211617875631734E-4 -0.010608945971884874
4496.31926084876 2.0620376468382355E-4 -0.010147203620998562 0.999793796235316 0.010147203620998562 0.999793796235316 0.010147203620998562 2.0620376468382355E-4 -0.010147203620998562
4702.215392871039 1.9233940150681586E-4 -0.009705458276486709 0.9998076605984931 0.009705458276486709 0.9998076605984931 0.009705458276486709 1.9233940150681586E-4 -0.009705458276486709
4917.539951729213 1.7949355041574147E-4 -0.009282847829522382 0.9998205064495843 0.009282847829522382 0.9998205064495843 0.009282847829522382 1.7949355041574147E-4 -0.009282847829522382
5142.724685371758 1.6759621716365362E-4 -0.008878548025293994 0.9998324037828364 0.008878548025293994 0.9998324037828364 0.008878548025293994 1.6759621716365362E-4 -0.008878548025293994
5378.221112414543 1.565820767636193E-4 -0.008491770661091613 0.9998434179232363 0.008491770661091613 0.9998434179232363 0.008491770661091613 1.565820767636193E-4 -0.008491770661091613
5624.501427482224 1.463900593988931E-4 -0.008121761873421174 0.9998536099406011 0.008121761873421174 0.9998536099406011 0.008121761873421174 1.463900593988931E-4 -0.008121761873421174
5882.059448007167 1.3696299658123656E-4 -0.007767800513766164 0.9998630370034187 0.007767800513766164 0.9998630370034187 0.007767800513766164 1.3696299658123656E-4 -0.007767800513766164
6151.41160438433 1.2824731833982077E-4 -0.007429196611390078 0.9998717526816602 0.007429196611390078 0.9998717526816602 0.007429196611390078 1.2824731833982077E-4 -0.007429196611390078
6433.097975467465 1.2019279297311648E-4 -0.007105289920537817 0.9998798072070268 0.007105289920537817 0.9998798072070268 0.007105289920537817 1.2019279297311648E-4 -0.007105289920537817
6727.683371482931 1.1275230177780878E-4 -0.006795448548573574 0.999887247698222 0.006795448548573574 0.999887247698222 0.006795448548573574 1.1275230177780878E-4 -0.006795448548573574
7035.758466532445 1.058816421209374E-4 -0.0064990676609920535 0.999894118357879 0.0064990676609920535 0.999894118357879 0.0064990676609920535 1.058816421209374E-4 -0.0064990676609920535
7357.940982955574 9.953935319032502E-5 -0.006215568258848626 0.9999004606468095 0.006215568258848626 0.9999004606468095 0.006215568258848626 9.953935319032502E-5 -0.006215568258848626
7694.876929926739 9.368655969984592E-5 -0.005944396023952306 0.9999063134403 0.005944396023952306 0.9999063134403 0.005944396023952306 9.368655969984592E-5 -0.005944396023952306
8047.241898770236 8.828682970686048E-5 -0.005685020227125807 0.9999117131702934 0.005685020227125807 0.9999117131702934 0.005685020227125807 8.828682970686048E-5 -0.005685020227125807
8415.742417590522 8.330604349637945E-5 -0.0054369326949287484 0.9999166939565037 0.0054369326949287484 0.9999166939565037 0.0054369326949287484 8.330604349637945E-5 -0.0054369326949287484
8801.117367933934 7.871227118694833E-5 -0.005199646830433333 0.999921287728813 0.005199646830433333 0.999921287728813 0.005199646830433333 7.871227118694833E-5 -0.005199646830433333
9204.139466322391 7.447565731155681E-5 -0.004972696683906852 0.9999255243426884 0.004972696683906852 0.9999255243426884 0.004972696683906852 7.447565731155681E-5 -0.004972696683906852
9625.61681362972 7.056831112408142E-5 -0.004755636069567294 0.9999294316888758 0.004755636069567294 0.9999294316888758 0.004755636069567294 7.056831112408142E-5 -0.004755636069567294
10066.394515407255 6.696420178339516E-5 -0.004548037724915498 0.9999330357982166 0.004548037724915498 0.9999330357982166 0.004548037724915498 6.696420178339516E-5 -0.004548037724915498
10527.356376407623 6.363905788182392E-5 -0.004349492509491628 0.9999363609421184 0.004349492509491628 0.9999363609421184 0.004349492509491628 6.363905788182392E-5 -0.004349492509491628
11009.426672704432 6.0570271022235014E-5 -0.0041596086402431445 0.9999394297289776 0.0041596086402431445 0.9999394297289776 0.0041596086402431445 6.0570271022235014E-5 -0.0041596086402431445
11513.572004961125 5.773680331939679E-5 -0.003978010961015266 0.9999422631966807 0.003978010961015266 0.9999422631966807 0.003978010961015266 5.773680331939679E-5 -0.003978010961015266
12040.803236564994 5.511909881681917E-5 -0.0038043402439772393 0.9999448809011833 0.0038043402439772393 0.9999448809011833 0.0038043402439772393 5.511909881681917E-5 -0.0038043402439772393
12592.177520512549 5.2698998879792407E-5 -0.003638252521074494 0.9999473010011203 0.003638252521074494 0.9999473010011203 0.003638252521074494 5.2698998879792407E-5 -0.003638252521074494
13168.800419110281 5.045966165744116E-5 -0.0034794184438458036 0.9999495403383426 0.0034794184438458036 0.9999495403383426 0.0034794184438458036 5.045966165744116E-5 -0.0034794184438458036
13771.82812074114 4.838548570877512E-5 -0.0033275226701652504 0.9999516145142913 0.0033275226701652504 0.9999516145142913 0.0033275226701652504 4.838548570877512E-5 -0.0033275226701652504
14402.469758141458 4.646203786626111E-5 -0.003182263276661341 0.9999535379621337 0.003182263276661341 0.9999535379621337 0.003182263276661341 4.646203786626111E-5 -0.003182263276661341
15061.989832836824 4.467598537063034E-5 -0.003043351195730324 0.9999553240146296 0.003043351195730324 0.9999553240146296 0.003043351195730324 4.467598537063034E-5 -0.003043351195730324
15751.710750598017 4.301503225690877E-5 -0.002910509676198821 0.9999569849677431 0.002910509676198821 0.9999569849677431 0.002910509676198821 4.301503225690877E-5 -0.002910509676198821
16473.01547300104 4.1467859907850785E-5 -0.002783473766802592 0.999958532140092 0.002783473766802592 0.999958532140092 0.002783473766802592 4.1467859907850785E-5 -0.002783473766802592
17227.35029040763 4.002407162056797E-5 -0.0026619898217345177 0.9999599759283797 0.0026619898217345177 0.9999599759283797 0.0026619898217345177 4.002407162056797E-5 -0.0026619898217345177
18016.227721926643 3.86741409585793E-5 -0.002545815027576031 0.9999613258590414 0.002545815027576031 0.9999613258590414 0.002545815027576031 3.86741409585793E-5 -0.002545815027576031
18841.229548170857 3.7409363588286927E-5 -0.002434716950962973 0.9999625906364118 0.002434716950962973 0.9999625906364118 0.002434716950962973 3.7409363588286927E-5 -0.002434716950962973
19704.009982890246 3.6221812229775534E-5 -0.0023284731063495977 0.9999637781877703 0.0023284731063495977 0.9999637781877703 0.0023284731063495977 3.6221812229775534E-5 -0.0023284731063495977
20606.298989841158 3.510429429092477E-5 -0.0022268705432248554 0.9999648957057092 0.0022268705432248554 0.9999648957057092 0.0022268705432248554 3.510429429092477E-5 -0.0022268705432248554
21549.90575154206 3.405031170543705E-5 -0.0021297054521043986 0.9999659496882948 0.0021297054521043986 0.9999659496882948 0.0021297054521043986 3.405031170543705E-5 -0.0021297054521043986
22536.722296871103 3.3054022463902536E-5 -0.002036782788573471 0.9999669459775361 0.002036782788573471 0.9999669459775361 0.002036782788573471 3.3054022463902536E-5 -0.002036782788573471
23568.727294779124 3.211020331658094E-5 -0.0019479159145935144 0.9999678897966835 0.0019479159145935144 0.9999678897966835 0.0019479159145935144 3.211020331658094E-5 -0.0019479159145935144
24647.99002172501 3.121421314064163E-5 -0.0018629262562145092 0.9999687857868593 0.0018629262562145092 0.9999687857868593 0.0018629262562145092 3.121421314064163E-5 -0.0018629262562145092
25776.674510788394 3.0361956505487922E-5 -0.0017816429767622025 0.9999696380434947 0.0017816429767622025 0.9999696380434947 0.0017816429767622025 3.0361956505487922E-5 -0.0017816429767622025
26957.043890779165 2.9549847038172666E-5 -0.0017039026645017273 0.9999704501529618 0.0017039026645017273 0.9999704501529618 0.0017039026645017273 2.9549847038172666E-5 -0.0017039026645017273
28191.464924044165 2.877477028541999E-5 -0.0016295490337248704 0.9999712252297145 0.0016295490337248704 0.9999712252297145 0.0016295490337248704 2.877477028541999E-5 -0.0016295490337248704
29482.412752069788 2.803404588570663E-5 -0.0015584326381746698 0.9999719659541144 0.0015584326381746698 0.9999719659541144 0.0015584326381746698 2.803404588570663E-5 -0.0015584326381746698
30832.47585839592 2.7325388998196834E-5 -0.0014904105957152282 0.9999726746110018 0.0014904105957152282 0.9999726746110018 0.0014904105957152282 2.7325388998196834E-5 -0.0014904105957152282
32244.361258792436 2.6646871076950254E-5 -0.0014253463231812709 0.999973353128923 0.0014253463231812709 0.999973353128923 0.0014253463231812709 2.6646871076950254E-5 -0.0014253463231812709
33720.899929105 2.599688021910455E-5 -0.0013631092804036776 0.9999740031197809 0.0013631092804036776 0.9999740031197809 0.0013631092804036776 2.599688021910455E-5 -0.0013631092804036776
35265.052481653605 2.537408144435868E-5 -0.001303574722503352 0.9999746259185556 0.001303574722503352 0.9999746259185556 0.001303574722503352 2.537408144435868E-5 -0.001303574722503352
36879.915101565646 2.477737737007015E-5 -0.0012466234596727223 0.9999752226226297 0.0012466234596727223 0.9999752226226297 0.0012466234596727223 2.477737737007015E-5 -0.0012466234596727223
38568.72575494639 2.4205869823052387E-5 -0.001192141623814988 0.9999757941301769 0.001192141623814988 0.9999757941301769 0.001192141623814988 2.4205869823052387E-5 -0.001192141623814988
40334.87068133502 2.3658822969516074E-5 -0.001140020441576883 0.9999763411770303 0.001140020441576883 0.9999763411770303 0.001140020441576883 2.3658822969516074E-5 -0.001140020441576883
42181.89118346415 2.3135628545440533E-5 -0.0010901560134803504 0.9999768643714545 0.0010901560134803504 0.9999768643714545 0.0010901560134803504 2.3135628545440533E-5 -0.0010901560134803504
44113.490727937 2.2635773731350738E-5 -0.0010424490990209026 0.9999773642262686 0.0010424490990209026 0.9999773642262686 0.0010424490990209026 2.2635773731350738E-5 -0.0010424490990209026
46133.54237105995 2.2158812141784982E-5 -9.96804907745154E-4 0.999977841187858 9.96804907745154E-4 0.999977841187858 9.96804907745154E-4 2.2158812141784982E-5 -9.96804907745154E-4
48246.09652471983 2.170433829737533E-5 -9.531328964382606E-4 0.9999782956617027 9.531328964382606E-4 0.9999782956617027 9.531328964382606E-4 2.170433829737533E-5 -9.531328964382606E-4
50455.389077877684 2.1271965825270997E-5 -9.113465726377666E-4 0.9999787280341748 9.113465726377666E-4 0.9999787280341748 9.113465726377666E-4 2.1271965825270997E-5 -9.113465726377666E-4
52765.849889962716 2.0861309501571096E-5 -8.713633047406096E-4 0.9999791386904985 8.713633047406096E-4 0.9999791386904985 8.713633047406096E-4 2.0861309501571096E-5 -8.713633047406096E-4
55182.11167319754 2.0471971117502274E-5 -8.331041389848207E-4 0.9999795280288826 8.331041389848207E-4 0.9999795280288826 8.331041389848207E-4 2.0471971117502274E-5 -8.331041389848207E-4
57709.019281663976 2.010352902834458E-5 -7.964936235699054E-4 0.9999798964709715 7.964936235699054E-4 0.9999798964709715 7.964936235699054E-4 2.010352902834458E-5 -7.964936235699054E-4
60351.63942573506 1.9755531137933826E-5 -7.614596401350096E-4 0.999980244468862 7.614596401350096E-4 0.999980244468862 7.614596401350096E-4 1.9755531137933826E-5 -7.614596401350096E-4
63115.27083135204 1.942749098711708E-5 -7.279332427486727E-4 0.999980572509013 7.279332427486727E-4 0.999980572509013 7.279332427486727E-4 1.942749098711708E-5 -7.279332427486727E-4
66005.4548645163 1.9118886554605318E-5 -6.958485044855034E-4 0.9999808811134453 6.958485044855034E-4 0.9999808811134453 6.958485044855034E-4 1.9118886554605318E-5 -6.958485044855034E-4
69027.98664229971 1.8829161343779627E-5 -6.651423715807796E-4 0.9999811708386562 6.651423715807796E-4 0.9999811708386562 6.651423715807796E-4 1.8829161343779627E-5 -6.651423715807796E-4
72188.92665265215 1.855772731774969E-5 -6.357545250703624E-4 0.9999814422726822 6.357545250703624E-4 0.9999814422726822 6.357545250703624E-4 1.855772731774969E-5 -6.357545250703624E-4
75494.61290630474 1.8303969254435587E-5 -6.076272497457493E-4 0.9999816960307456 6.076272497457493E-4 0.9999816960307456 6.076272497457493E-4 1.8303969254435587E-5 -6.076272497457493E-4
78951.67364513519 1.8067250119792416E-5 -5.807053101865458E-4 0.9999819327498805 5.807053101865458E-4 0.9999819327498805 5.807053101865458E-4 1.8067250119792416E-5 -5.807053101865458E-4
82567.04063247632 1.784691709621562E-5 -5.549358335776921E-4 0.9999821530829038 5.549358335776921E-4 0.9999821530829038 5.549358335776921E-4 1.784691709621562E-5 -5.549358335776921E-4
86347.96305201648 1.764230795034074E-5 -5.302681989774833E-4 0.9999823576920495 5.302681989774833E-4 0.9999823576920495 5.302681989774833E-4 1.764230795034074E-5 -5.302681989774833E-4
90302.02204316045 1.7452757475905413E-5 -5.066539326748655E-4 0.999982547242524 5.066539326748655E-4 0.999982547242524 5.066539326748655E-4 1.7452757475905413E-5 -5.066539326748655E-4
94437.14590199597 1.7277603799661512E-5 -4.8404660925975356E-4 0.9999827223962005 4.8404660925975356E-4 0.9999827223962005 4.8404660925975356E-4 1.7277603799661512E-5 -4.8404660925975356E-4
98761.62597834495 1.7116194388787138E-5 -4.6240175802665835E-4 0.9999828838056112 4.6240175802665835E-4 0.9999828838056112 4.6240175802665835E-4 1.7116194388787138E-5 -4.6240175802665835E-4
103284.13330077512 1.696789164485372E-5 -4.4167677433790196E-4 0.999983032108355 4.4167677433790196E-4 0.999983032108355 4.4167677433790196E-4 1.696789164485372E-5 -4.4167677433790196E-4
108013.73596290655 1.6832078010841565E-5 -4.218308355861086E-4 0.9999831679219892 4.218308355861086E-4 0.9999831679219892 4.218308355861086E-4 1.6832078010841565E-5 -4.218308355861086E-4
112959.91730587467 1.6708160553263396E-5 -4.0282482141449917E-4 0.9999832918394471 4.0282482141449917E-4 0.9999832918394471 4.0282482141449917E-4 1.6708160553263396E-5 -4.0282482141449917E-4
118132.59493340722 1.65955750109454E-5 -3.8462123787601465E-4 0.9999834044249892 3.8462123787601465E-4 0.9999834044249892 3.8462123787601465E-4 1.65955750109454E-5 -3.8462123787601465E-4
123542.14059764279 1.6493789325604267E-5 -3.671841452368074E-4 0.9999835062106744 3.671841452368074E-4 0.9999835062106744 3.671841452368074E-4 1.6493789325604267E-5 -3.671841452368074E-4
129199.40099556338 1.6402306687495935E-5 -3.5047908915493425E-4 0.9999835976933124 3.5047908915493425E-4 0.9999835976933124 3.5047908915493425E-4 1.6402306687495935E-5 -3.5047908915493425E-4
135115.71951774065 1.6320668142716947E-5 -3.3447303499007725E-4 0.9999836793318574 3.3447303499007725E-4 0.9999836793318574 3.3447303499007725E-4 1.6320668142716947E-5 -3.3447303499007725E-4
141302.95899300394 1.6248454817920072E-5 -3.191343050240935E-4 0.9999837515451823 3.191343050240935E-4 0.9999837515451823 3.191343050240935E-4 1.6248454817920072E-5 -3.191343050240935E-4
147773.52547463533 1.61852898239986E-5 -3.044325183946003E-4 0.9999838147101763 3.044325183946003E-4 0.9999838147101763 3.044325183946003E-4 1.61852898239986E-5 -3.044325183946003E-4
154540.39311578672 1.613083990341089E-5 -2.9033853356434116E-4 0.9999838691600965 2.9033853356434116E-4 0.9999838691600965 2.9033853356434116E-4 1.613083990341089E-5 -2.9033853356434116E-4
161617.13018399404 1.6084816886923137E-5 -2.7682439316758806E-4 0.9999839151831131 2.7682439316758806E-4 0.9999839151831131 2.7682439316758806E-4 1.6084816886923137E-5 -2.7682439316758806E-4
169017.92626695373 1.604697902523668E-5 -2.638632710912505E-4 0.9999839530209746 2.638632710912505E-4 0.9999839530209746 2.638632710912505E-4 1.604697902523668E-5 -2.638632710912505E-4
176757.6207241092 1.6017132259758185E-5 -2.514294216628092E-4 0.9999839828677403 2.514294216628092E-4 0.9999839828677403 2.514294216628092E-4 1.6017132259758185E-5 -2.514294216628092E-4
184851.7324410973 1.599513149510939E-5 -2.394981308297219E-4 0.9999840048685048 2.394981308297219E-4 0.9999840048685048 2.394981308297219E-4 1.599513149510939E-5 -2.394981308297219E-4
193316.49094671433 1.598088193423492E-5 -2.2804566922576719E-4 0.9999840191180657 2.2804566922576719E-4 0.9999840191180657 2.2804566922576719E-4 1.598088193423492E-5 -2.2804566922576719E-4
202168.86895479533 1.5974340535469672E-5 -2.170492470290797E-4 0.9999840256594644 2.170492470290797E-4 0.9999840256594644 2.170492470290797E-4 1.5974340535469672E-5 -2.170492470290797E-4
211426.61639625567 1.59755176499402E-5 -2.0648697052455412E-4 0.9999840244823502 2.0648697052455412E-4 0.9999840244823502 2.0648697052455412E-4 1.59755176499402E-5 -2.0648697052455412E-4
221108.2960095334 1.59844788974374E-5 -1.9633780029009048E-4 0.9999840155211025 1.9633780029009048E-4 0.9999840155211025 1.9633780029009048E-4 1.59844788974374E-5 -1.9633780029009048E-4
231233.32056079412 1.6001347339626734E-5 -1.8658151093196585E-4 0.9999839986526605 1.8658151093196585E-4 0.9999839986526605 1.8658151093196585E-4 1.6001347339626734E-5 -1.8658151093196585E-4
241821.9917685295 1.602630601137422E-5 -1.7719865229965854E-4 0.9999839736939885 1.7719865229965854E-4 0.9999839736939885 1.7719865229965854E-4 1.602630601137422E-5 -1.7719865229965854E-4
252895.54101059667 1.6059600874289408E-5 -1.681705121148808E-4 0.9999839403991255 1.681705121148808E-4 0.9999839403991255 1.681705121148808E-4 1.6059600874289408E-5 -1.681705121148808E-4
264476.17189532047 1.610154426157806E-5 -1.5947907995356668E-4 0.9999838984557384 1.5947907995356668E-4 0.9999838984557384 1.5947907995356668E-4 1.610154426157806E-5 -1.5947907995356668E-4
276587.1047820183 1.6152518890269257E-5 -1.5110701252329676E-4 0.9999838474811097 1.5110701252329676E-4 0.9999838474811097 1.5110701252329676E-4 1.6152518890269257E-5 -1.5110701252329676E-4
289252.62334021524 1.6212982526214614E-5 -1.430376001823126E-4 0.9999837870174738 1.430376001823126E-4 0.9999837870174738 1.430376001823126E-4 1.6212982526214614E-5 -1.430376001823126E-4
302498.12324090634 1.6283473399439457E-5 -1.3525473465009514E-4 0.9999837165266007 1.3525473465009514E-4 0.9999837165266007 1.3525473465009514E-4 1.6283473399439457E-5 -1.3525473465009514E-4
316350.1630774958 1.636461648307791E-5 -1.277428778637539E-4 0.9999836353835168 1.277428778637539E-4 0.9999836353835168 1.277428778637539E-4 1.636461648307791E-5 -1.277428778637539E-4
330836.51761851617 1.645713076904907E-5 -1.2048703193954544E-4 0.9999835428692307 1.2048703193954544E-4 0.9999835428692307 1.2048703193954544E-4 1.645713076904907E-5 -1.2048703193954544E-4
345986.2334989038 1.6561837698869303E-5 -1.1347271020522303E-4 0.9999834381623012 1.1347271020522303E-4 0.9999834381623012 1.1347271020522303E-4 1.6561837698869303E-5 -1.1347271020522303E-4
361829.68746149767 1.6679670939892485E-5 -1.0668590927732097E-4 0.9999833203290601 1.0668590927732097E-4 0.9999833203290601 1.0668590927732097E-4 1.6679670939892485E-5 -1.0668590927732097E-4
378398.6472655419 1.6811687737572633E-5 -1.0011308216889741E-4 0.9999831883122623 1.0011308216889741E-4 0.9999831883122623 1.0011308216889741E-4 1.6811687737572633E-5 -1.0011308216889741E-4
395726.33538431907 1.6959082125316027E-5 -9.374111242916333E-5 0.9999830409178744 9.374111242916333E-5 0.9999830409178744 9.374111242916333E-5 1.6959082125316027E-5 -9.374111242916333E-5
413847.4956196361 1.7123200338066373E-5 -8.755728933892951E-5 0.999982876799662 8.755728933892951E-5 0.999982876799662 8.755728933892951E-5 1.7123200338066373E-5 -8.755728933892951E-5
432798.46276673 1.7305558857737452E-5 -8.154928421800925E-5 0.9999826944411423 8.154928421800925E-5 0.9999826944411423 8.154928421800925E-5 1.7305558857737452E-5 -8.154928421800925E-5
452617.23546927935 1.7507865622858112E-5 -7.570512794718686E-5 0.9999824921343772 7.570512794718686E-5 0.9999824921343772 7.570512794718686E-5 1.7507865622858112E-5 -7.570512794718686E-5
473343.5524106058 1.773204506758024E-5 -7.001318987482334E-5 0.9999822679549325 7.001318987482334E-5 0.9999822679549325 7.001318987482334E-5 1.773204506758024E-5 -7.001318987482334E-5
495018.9719938298 1.7980267824465267E-5 -6.446215837658159E-5 0.9999820197321756 6.446215837658159E-5 0.9999820197321756 6.446215837658159E-5 1.7980267824465267E-5 -6.446215837658159E-5
517686.9556707574 1.8254986141152114E-5 -5.9041023480896195E-5 0.9999817450138588 5.9041023480896195E-5 0.9999817450138588 5.9041023480896195E-5 1.8254986141152114E-5 -5.9041023480896195E-5
541392.9550865724 1.855897633529192E-5 -5.373906218472709E-5 0.9999814410236646 5.373906218472709E-5 0.9999814410236646 5.373906218472709E-5 1.855897633529192E-5 -5.373906218472709E-5
566184.5032150731 1.8895389959368068E-5 -4.854582739674386E-5 0.9999811046100405 4.854582739674386E-5 0.9999811046100405 4.854582739674386E-5 1.8895389959368068E-5 -4.854582739674386E-5
592111.3096671875 1.9267815783046716E-5 -4.345114190773997E-5 0.999980732184217 4.345114190773997E-5 0.999980732184217 4.345114190773997E-5 1.9267815783046716E-5 -4.345114190773997E-5
619225.3603638692 1.968035524075003E-5 -3.844509947487588E-5 0.9999803196447593 3.844509947487588E-5 0.9999803196447593 3.844509947487588E-5 1.968035524075003E-5 -3.844509947487588E-5
647581.0217732318 2.0137714645859885E-5 -3.351807612867454E-5 0.9999798622853541 3.351807612867454E-5 0.9999798622853541 3.351807612867454E-5 2.0137714645859885E-5 -3.351807612867454E-5
677235.1499209236 2.064531823381974E-5 -2.8660756336845204E-5 0.9999793546817664 2.8660756336845204E-5 0.9999793546817664 2.8660756336845204E-5 2.064531823381974E-5 -2.8660756336845204E-5
708247.2043923237 2.120944692024782E-5 -2.386418093739783E-5 0.9999787905530799 2.386418093739783E-5 0.9999787905530799 2.386418093739783E-5 2.120944692024782E-5 -2.386418093739783E-5
740679.3675551426 2.1837408423131762E-5 -1.9119827157097676E-5 0.9999781625915769 1.9119827157097676E-5 0.9999781625915769 1.9119827157097676E-5 2.1837408423131762E-5 -1.9119827157097676E-5
774596.6692414834 2.2537744815963945E-5 -1.4419736104576612E-5 0.999977462255184 1.4419736104576612E-5 0.999977462255184 1.4419736104576612E-5 2.2537744815963945E-5 -1.4419736104576612E-5
810067.1171393609 2.332048305478147E-5 -9.756710646528575E-6 0.9999766795169451 9.756710646528575E-6 0.9999766795169451 9.756710646528575E-6 2.332048305478147E-5 -9.756710646528575E-6
847161.8331551342 2.4197431367460397E-5 -5.1246175940769675E-6 0.9999758025686324 5.1246175940769675E-6 0.9999758025686324 5.1246175940769675E-6 2.4197431367460397E-5 -5.1246175940769675E-6
885955.196020256 2.5182517322038516E-5 -5.188439420717759E-7 0.9999748174826779 5.188439420717759E-7 0.9999748174826779 5.188439420717759E-7 2.5182517322038516E-5 -5.188439420717759E-7
926524.9904283119 2.629214764337261E-5 4.063021230674552E-6 0.9999737078523566 -4.063021230674552E-6 0.9999737078523566 -4.063021230674552E-6 2.629214764337261E-5 4.063021230674552E-6
968952.5630013399 2.7545537768030818E-5 8.620179435465354E-6 0.999972454462232 -8.620179435465354E-6 0.999972454462232 -8.620179435465354E-6 2.7545537768030818E-5 8.620179435465354E-6
1013322.9853982128 2.8964897622262935E-5 1.3147159164851015E-5 0.9999710351023776 -1.3147159164851015E-5 0.9999710351023776 -1.3147159164851015E-5 2.8964897622262935E-5 1.3147159164851015E-5
1059725.224892072 3.057524856891142E-5 1.7631744200247198E-5 0.9999694247514312 -1.7631744200247198E-5 0.9999694247514312 -1.7631744200247198E-5 3.057524856891142E-5 1.7631744200247198E-5
1108252.3227589026 3.240345748366214E-5 2.2052167097077713E-5 0.9999675965425167 -2.2052167097077713E-5 0.9999675965425167 -2.2052167097077713E-5 3.240345748366214E-5 2.2052167097077713E-5
1159001.5808348707 3.447578579471464E-5 2.637359477264913E-5 0.9999655242142051 -2.637359477264913E-5 0.9999655242142051 -2.637359477264913E-5 3.447578579471464E-5 2.637359477264913E-5
1212074.756616558 3.68128951647575E-5 3.054437756953289E-5 0.9999631871048352 -3.054437756953289E-5 0.9999631871048352 -3.054437756953289E-5 3.68128951647575E-5 3.054437756953289E-5
1267578.267295219 3.9421035516935876E-5 3.4493518480248105E-5 0.999960578964483 -3.4493518480248105E-5 0.999960578964483 -3.4493518480248105E-5 3.9421035516935876E-5 3.4493518480248105E-5
1325623.403134245 4.22786854876748E-5 3.813254054718596E-5 0.9999577213145124 -3.813254054718596E-5 0.9999577213145124 -3.813254054718596E-5 4.22786854876748E-5 3.813254054718596E-5
1386326.5506175987 4.532045100026507E-5 4.136694900641442E-5 0.9999546795489996 -4.136694900641442E-5 0.9999546795489996 -4.136694900641442E-5 4.532045100026507E-5 4.136694900641442E-5
1449809.4258167404 4.842580093795373E-5 4.412250510537652E-5 0.999951574199062 -4.412250510537652E-5 0.999951574199062 -4.412250510537652E-5 4.842580093795373E-5 4.412250510537652E-5
1516199.318443883 5.142760777316869E-5 4.638470178870274E-5 0.9999485723922267 -4.638470178870274E-5 0.9999485723922267 -4.638470178870274E-5 5.142760777316869E-5 4.638470178870274E-5
1585629.3470810156 5.415538968439716E-5 4.82329845837633E-5 0.9999458446103158 -4.82329845837633E-5 0.9999458446103158 -4.82329845837633E-5 5.415538968439716E-5 4.82329845837633E-5
1658238.7260963656 5.650723872189064E-5 4.983484771601471E-5 0.9999434927612783 -4.983484771601471E-5 0.9999434927612783 -4.983484771601471E-5 5.650723872189064E-5 4.983484771601471E-5
1734173.0447835915 5.850731330835239E-5 5.137602299311455E-5 0.9999414926866916 -5.137602299311455E-5 0.9999414926866916 -5.137602299311455E-5 5.850731330835239E-5 5.137602299311455E-5
1813584.5592833052 6.0290626303426974E-5 5.295179179611899E-5 0.9999397093736963 -5.295179179611899E-5 0.9999397093736963 -5.295179179611899E-5 6.0290626303426974E-5 5.295179179611899E-5
1896632.4978723642 6.199323693562376E-5 5.449269305798639E-5 0.9999380067630644 -5.449269305798639E-5 0.9999380067630644 -5.449269305798639E-5 6.199323693562376E-5 5.449269305798639E-5
1983483.380232962 6.359196607148519E-5 5.580565369395117E-5 0.9999364080339286 -5.580565369395117E-5 0.9999364080339286 -5.580565369395117E-5 6.359196607148519E-5 5.580565369395117E-5
2074311.351341793 6.48136153642609E-5 5.677102282652834E-5 0.9999351863846359 -5.677102282652834E-5 0.9999351863846359 -5.677102282652834E-5 6.48136153642609E-5 5.677102282652834E-5
2169298.5306486627 6.52828788383319E-5 5.759014098632418E-5 0.9999347171211614 -5.759014098632418E-5 0.9999347171211614 -5.759014098632418E-5 6.52828788383319E-5 5.759014098632418E-5
2268635.3772447985 6.488482786368406E-5 5.877517312442522E-5 0.9999351151721362 -5.877517312442522E-5 0.9999351151721362 -5.877517312442522E-5 6.488482786368406E-5 5.877517312442522E-5
2372521.0717529384 6.39310400550453E-5 6.0779601257737346E-5 0.9999360689599451 -6.0779601257737346E-5 0.9999360689599451 -6.0779601257737346E-5 6.39310400550453E-5 6.0779601257737346E-5
2481163.9157050513 6.290720365759636E-5 6.370357569298633E-5 0.9999370927963424 -6.370357569298633E-5 0.9999370927963424 -6.370357569298633E-5 6.290720365759636E-5 6.370357569298633E-5
2594781.7492083823 6.216506203397683E-5 6.736464071892478E-5 0.9999378349379661 -6.736464071892478E-5 0.9999378349379661 -6.736464071892478E-5 6.216506203397683E-5 6.736464071892478E-5
2713602.3877373175 6.18467588807841E-5 7.1507314536043E-5 0.9999381532411191 -7.1507314536043E-5 0.9999381532411191 -7.1507314536043E-5 6.18467588807841E-5 7.1507314536043E-5
2837864.078926942 6.195608843705916E-5 7.592445869295382E-5 0.999938043911563 -7.592445869295382E-5 0.999938043911563 -7.592445869295382E-5 6.195608843705916E-5 7.592445869295382E-5
2967815.980284079 6.243794347935402E-5 8.048154111428061E-5 0.9999375620565205 -8.048154111428061E-5 0.9999375620565205 -8.048154111428061E-5 6.243794347935402E-5 8.048154111428061E-5
3103718.6587738325 6.32235191366228E-5 8.510171160466773E-5 0.9999367764808633 -8.510171160466773E-5 0.9999367764808633 -8.510171160466773E-5 6.32235191366228E-5 8.510171160466773E-5
3245844.61328318 6.424885232513941E-5 8.974585575047767E-5 0.9999357511476745 -8.974585575047767E-5 0.9999357511476745 -8.974585575047767E-5 6.424885232513941E-5 8.974585575047767E-5
3394478.8210093947 6.546007932497767E-5 9.439768021871891E-5 0.9999345399206749 -9.439768021871891E-5 0.9999345399206749 -9.439768021871891E-5 6.546007932497767E-5 9.439768021871891E-5
3549919.3088686652 6.681347577799334E-5 9.905430996593015E-5 0.9999331865242221 -9.905430996593015E-5 0.9999331865242221 -9.905430996593015E-5 6.681347577799334E-5 9.905430996593015E-5
3712477.751070856 6.827392653517607E-5 1.037207532566641E-4 0.9999317260734649 -1.037207532566641E-4 0.9999317260734649 -1.037207532566641E-4 6.827392653517607E-5 1.037207532566641E-4
3882480.094058385 6.981321646431992E-5 1.0840672927433937E-4 0.9999301867835358 -1.0840672927433937E-4 0.9999301867835358 -1.0840672927433937E-4 6.981321646431992E-5 1.0840672927433937E-4
4060267.2100625183 7.140857592960225E-5 1.1312485931640797E-4 0.9999285914240702 -1.1312485931640797E-4 0.9999285914240702 -1.1312485931640797E-4 7.140857592960225E-5 1.1312485931640797E-4
4246195.580587287 7.3041555421244E-5 1.1788962619534176E-4 0.9999269584445787 -1.1788962619534176E-4 0.9999269584445787 -1.1788962619534176E-4 7.3041555421244E-5 1.1788962619534176E-4
4440638.011191738 7.469718833492153E-5 1.2271676229480305E-4 0.9999253028116651 -1.2271676229480305E-4 0.9999253028116651 -1.2271676229480305E-4 7.469718833492153E-5 1.2271676229480305E-4
4643984.379003457 7.636337621691586E-5 1.2762287623259416E-4 0.9999236366237831 -1.2762287623259416E-4 0.9999236366237831 -1.2762287623259416E-4 7.636337621691586E-5 1.2762287623259416E-4
4856642.414462493 7.80304361098981E-5 1.3262521271021388E-4 0.9999219695638902 -1.3262521271021388E-4 0.9999219695638902 -1.3262521271021388E-4 7.80304361098981E-5 1.3262521271021388E-4
5079038.5188628705 7.969076236194444E-5 1.377414874931504E-4 0.999920309237638 -1.377414874931504E-4 0.999920309237638 -1.377414874931504E-4 7.969076236194444E-5 1.377414874931504E-4
5311618.619331237 8.133856775758922E-5 1.4298976588379708E-4 0.9999186614322424 -1.4298976588379708E-4 0.9999186614322424 -1.4298976588379708E-4 8.133856775758922E-5 1.4298976588379708E-4
5554849.062956665 8.296967901283862E-5 1.4838836774069657E-4 0.9999170303209871 -1.4838836774069657E-4 0.9999170303209871 -1.4838836774069657E-4 8.296967901283862E-5 1.4838836774069657E-4
5809217.551864742 8.458136937719053E-5 1.5395579020101457E-4 0.9999154186306228 -1.5395579020101457E-4 0.9999154186306228 -1.5395579020101457E-4 8.458136937719053E-5 1.5395579020101457E-4
6075234.121110557 8.617221669136474E-5 1.597106436432658E-4 0.9999138277833086 -1.597106436432658E-4 0.9999138277833086 -1.597106436432658E-4 8.617221669136474E-5 1.597106436432658E-4
6353432.161351663 8.774197922884722E-5 1.6567159869820556E-4 0.9999122580207713 -1.6567159869820556E-4 0.9999122580207713 -1.6567159869820556E-4 8.774197922884722E-5 1.6567159869820556E-4
6644369.48835128 8.929148441158896E-5 1.718573431987E-4 0.9999107085155886 -1.718573431987E-4 0.9999107085155886 -1.718573431987E-4 8.929148441158896E-5 1.718573431987E-4
6948629.461456518 9.082252735754119E-5 1.782865483879376E-4 0.9999091774726424 -1.782865483879376E-4 0.9999091774726424 -1.782865483879376E-4 9.082252735754119E-5 1.782865483879376E-4
7266822.153293942 9.23377774345976E-5 1.8497784379190903E-4 0.9999076622225653 -1.8497784379190903E-4 0.9999076622225653 -1.8497784379190903E-4 9.23377774345976E-5 1.8497784379190903E-4
7599585.573028191 9.384069174512828E-5 1.919498000903057E-4 0.9999061593082548 -1.919498000903057E-4 0.9999061593082548 -1.919498000903057E-4 9.384069174512828E-5 1.919498000903057E-4
7947586.945636123 9.533543488445573E-5 1.992209191965134E-4 0.9999046645651154 -1.992209191965134E-4 0.9999046645651154 -1.992209191965134E-4 9.533543488445573E-5 1.992209191965134E-4
8311524.049761669 9.682680450758917E-5 2.0680963064230549E-4 0.9999031731954925 -2.0680963064230549E-4 0.9999031731954925 -2.0680963064230549E-4 9.682680450758917E-5 2.0680963064230549E-4
8692126.616834069 9.832016227743774E-5 2.1473429328749727E-4 0.9999016798377226 -2.1473429328749727E-4 0.9999016798377226 -2.1473429328749727E-4 9.832016227743774E-5 2.1473429328749727E-4
9090157.794254545 9.982136971097152E-5 2.2301320135306385E-4 0.9999001786302891 -2.2301320135306385E-4 0.9999001786302891 -2.2301320135306385E-4 9.982136971097152E-5 2.2301320135306385E-4
9506415.67558567 1.013367283287176E-4 2.31664593811471E-4 0.9998986632716711 -2.31664593811471E-4 0.9998986632716711 -2.31664593811471E-4 1.013367283287176E-4 2.31664593811471E-4
9941734.900811132 1.0287292337746622E-4 2.40706666257703E-4 0.9998971270766224 -2.40706666257703E-4 0.9998971270766224 -2.40706666257703E-4 1.0287292337746622E-4 2.40706666257703E-4
1.0396988329875145E7 1.0443697025750813E-4 2.5015758452337223E-4 0.9998955630297426 -2.5015758452337223E-4 0.9998955630297426 -2.5015758452337223E-4 1.0443697025750813E-4 2.5015758452337223E-4
1.0873088792856488E7 1.0603616265930971E-4 2.6003549947776556E-4 0.9998939638373406 -2.6003549947776556E-4 0.9998939638373406 -2.6003549947776556E-4 1.0603616265930971E-4 2.6003549947776556E-4
1.1370990920287136E7 1.0767802131120544E-4 2.703585626772678E-4 0.9998923219786887 -2.703585626772678E-4 0.9998923219786887 -2.703585626772678E-4 1.0767802131120544E-4 2.703585626772678E-4
1.1891693057284761E7 1.0937024216762058E-4 2.811449427719844E-4 0.9998906297578326 -2.811449427719844E-4 0.9998906297578326 -2.811449427719844E-4 1.0937024216762058E-4 2.811449427719844E-4
1.2436239265337834E7 1.1112064283321864E-4 2.9241284284991516E-4 0.9998888793571666 -2.9241284284991516E-4 0.9998888793571666 -2.9241284284991516E-4 1.1112064283321864E-4 2.9241284284991516E-4
1.3005721415756406E7 1.129371060281502E-4 3.041805191889411E-4 0.999887062893972 -3.041805191889411E-4 0.999887062893972 -3.041805191889411E-4 1.129371060281502E-4 3.041805191889411E-4
1.3601281378986895E7 1.1482751895913698E-4 3.164663021893183E-4 0.999885172481041 -3.164663021893183E-4 0.999885172481041 -3.164663021893183E-4 1.1482751895913698E-4 3.164663021893183E-4
1.4224113314179895E7 1.1679970757639791E-4 3.2928862056728724E-4 0.9998832002924237 -3.2928862056728724E-4 0.9998832002924237 -3.2928862056728724E-4 1.1679970757639791E-4 3.2928862056728724E-4
1.487546606360265E7 1.1886136487337613E-4 3.4266603019539224E-4 0.9998811386351265 -3.4266603019539224E-4 0.9998811386351265 -3.4266603019539224E-4 1.1886136487337613E-4 3.4266603019539224E-4
1.5556645656696366E7 1.2101997263042444E-4 3.566172492663225E-4 0.9998789800273695 -3.566172492663225E-4 0.9998789800273695 -3.566172492663225E-4 1.2101997263042444E-4 3.566172492663225E-4
1.6269017928800195E7 1.232827163195245E-4 3.7116120172120615E-4 0.9998767172836805 -3.7116120172120615E-4 0.9998767172836805 -3.7116120172120615E-4 1.232827163195245E-4 3.7116120172120615E-4
1.7014011259791706E7 1.256563932770956E-4 3.863170711037568E-4 0.9998743436067229 -3.863170711037568E-4 0.9998743436067229 -3.863170711037568E-4 1.256563932770956E-4 3.863170711037568E-4
1.7793119438136104E7 1.2814731471504274E-4 4.021043671592664E-4 0.999871852685285 -4.021043671592664E-4 0.999871852685285 -4.021043671592664E-4 1.2814731471504274E-4 4.021043671592664E-4
1.8607904656085912E7 1.307612026706691E-4 4.185430075701685E-4 0.9998692387973294 -4.185430075701685E-4 0.9998692387973294 -4.185430075701685E-4 1.307612026706691E-4 4.185430075701685E-4
1.946000064203784E7 1.335030835821143E-4 4.3565341718466733E-4 0.9998664969164179 -4.3565341718466733E-4 0.9998664969164179 -4.3565341718466733E-4 1.335030835821143E-4 4.3565341718466733E-4
2.03511159363264E7 1.3637718079828265E-4 4.5345664692847556E-4 0.9998636228192017 -4.5345664692847556E-4 0.9998636228192017 -4.5345664692847556E-4 1.3637718079828265E-4 4.5345664692847556E-4
2.128303731702384E7 1.39386808963273E-4 4.7197451427154153E-4 0.9998606131910367 -4.7197451427154153E-4 0.9998606131910367 -4.7197451427154153E-4 1.39386808963273E-4 4.7197451427154153E-4
2.225763338261411E7 1.4253427381898231E-4 4.912297666361669E-4 0.999857465726181 -4.912297666361669E-4 0.999857465726181 -4.912297666361669E-4 1.4253427381898231E-4 4.912297666361669E-4
2.3276858298725832E7 1.4582078150195759E-4 5.112462684733567E-4 0.999854179218498 -5.112462684733567E-4 0.999854179218498 -5.112462684733567E-4 1.4582078150195759E-4 5.112462684733567E-4
2.434275571643584E7 1.4924636182176687E-4 5.320492119051569E-4 0.9998507536381782 -5.320492119051569E-4 0.9998507536381782 -5.320492119051569E-4 1.4924636182176687E-4 5.320492119051569E-4
2.5457462870000184E7 1.528098102455284E-4 5.536653498518343E-4 0.9998471901897544 -5.536653498518343E-4 0.9998471901897544 -5.536653498518343E-4 1.528098102455284E-4 5.536653498518343E-4
2.6623214862229604E7 1.5650865332580258E-4 5.761232494702549E-4 0.9998434913466742 -5.761232494702549E-4 0.9998434913466742 -5.761232494702549E-4 1.5650865332580258E-4 5.761232494702549E-4
2.7842349146100778E7 1.603391420532457E-4 5.994535625775919E-4 0.9998396608579466 -5.994535625775919E-4 0.9998396608579466 -5.994535625775919E-4 1.603391420532457E-4 5.994535625775919E-4
2.911731021159103E7 1.6429627706127505E-4 6.236893085927844E-4 0.9998357037229386 -6.236893085927844E-4 0.9998357037229386 -6.236893085927844E-4 1.6429627706127505E-4 6.236893085927844E-4
3.0450654487132445E7 1.683738687472821E-4 6.488661644794716E-4 0.9998316261312528 -6.488661644794716E-4 0.9998316261312528 -6.488661644794716E-4 1.683738687472821E-4 6.488661644794716E-4
3.1845055465514947E7 1.7256463421840267E-4 6.750227553079916E-4 0.9998274353657818 -6.750227553079916E-4 0.9998274353657818 -6.750227553079916E-4 1.7256463421840267E-4 6.750227553079916E-4
3.3303309064514637E7 1.7686033156226572E-4 7.02200938457859E-4 0.9998231396684378 -7.02200938457859E-4 0.9998231396684378 -7.02200938457859E-4 1.7686033156226572E-4 7.02200938457859E-4
3.48283392329978E7 1.8125193035560132E-4 7.304460742326223E-4 0.9998187480696445 -7.304460742326223E-4 0.9998187480696445 -7.304460742326223E-4 1.8125193035560132E-4 7.304460742326223E-4
3.642320381373938E7 1.8572981565205827E-4 7.59807275811317E-4 0.9998142701843479 -7.59807275811317E-4 0.9998142701843479 -7.59807275811317E-4 1.8572981565205827E-4 7.59807275811317E-4
3.809110067471375E7 1.9028402104906926E-4 7.903376320407417E-4 0.999809715978951 -7.903376320407417E-4 0.999809715978951 -7.903376320407417E-4 1.9028402104906926E-4 7.903376320407417E-4
3.9835374121149175E7 1.9490448494370867E-4 8.220943975700396E-4 0.9998050955150563 -8.220943975700396E-4 0.9998050955150563 -8.220943975700396E-4 1.9490448494370867E-4 8.220943975700396E-4
4.165952160120533E7 1.9958132286629167E-4 8.551391461955653E-4 0.9998004186771338 -8.551391461955653E-4 0.9998004186771338 -8.551391461955653E-4 1.9958132286629167E-4 8.551391461955653E-4
4.356720071871697E7 2.0430510792736757E-4 8.895378849354961E-4 0.9997956948920724 -8.895378849354961E-4 0.9997956948920724 -8.895378849354961E-4 2.0430510792736757E-4 8.895378849354961E-4
4.556223656706753E7 2.090671509991609E-4 9.25361128177865E-4 0.9997909328490009 -9.25361128177865E-4 0.9997909328490009 -9.25361128177865E-4 2.090671509991609E-4 9.25361128177865E-4
4.7648629398895085E7 2.1385977230899415E-4 9.626839331120951E-4 0.9997861402276913 -9.626839331120951E-4 0.9997861402276913 -9.626839331120951E-4 2.1385977230899415E-4 9.626839331120951E-4
4.9830562647012316E7 2.186765566407844E-4 0.001001585899428728 0.9997813234433592 -0.001001585899428728 0.9997813234433592 -0.001001585899428728 2.186765566407844E-4 0.001001585899428728
5.211241131261991E7 2.235125852714347E-4 0.0010421511378301284 0.9997764874147285 -0.0010421511378301284 0.9997764874147285 -0.0010421511378301284 2.235125852714347E-4 0.0010421511378301284
5.449875073763604E7 2.2836463902734915E-4 0.001084468213135331 0.9997716353609727 -0.001084468213135331 0.9997716353609727 -0.001084468213135331 2.2836463902734915E-4 0.001084468213135331
5.6994365778727934E7 2.332313683228881E-4 0.0011286300686151958 0.999766768631677 -0.0011286300686151958 0.999766768631677 -0.0011286300686151958 2.332313683228881E-4 0.0011286300686151958
5.960426040144389E7 2.381134276155966E-4 0.001174733938628549 0.9997618865723845 -0.001174733938628549 0.9997618865723845 -0.001174733938628549 2.381134276155966E-4 0.001174733938628549
6.233366771367935E7 2.430135732610927E-4 0.0012228812566522926 0.999756986426739 -0.0012228812566522926 0.999756986426739 -0.0012228812566522926 2.430135732610927E-4 0.0012228812566522926
6.518806045859894E7 2.4793672516470756E-4 0.0012731775654502443 0.9997520632748351 -0.0012731775654502443 0.9997520632748351 -0.0012731775654502443 2.4793672516470756E-4 0.0012731775654502443
6.817316198804997E7 2.5288999381983297E-4 0.0013257324354747045 0.9997471100061801 -0.0013257324354747045 0.9997471100061801 -0.0013257324354747045 2.5288999381983297E-4 0.0013257324354747045
7.129495773847401E7 2.5788267523439544E-4 0.0013806593967283117 0.9997421173247656 -0.0013806593967283117 0.9997421173247656 -0.0013806593967283117 2.5788267523439544E-4 0.0013806593967283117
7.455970723232402E7 2.6292621684620155E-4 0.0014380758883256412 0.999737073783154 -0.0014380758883256412 0.999737073783154 -0.0014380758883256412 2.6292621684620155E-4 0.0014380758883256412
7.797395662905188E7 2.680341578126377E-4 0.0014981032289778514 0.9997319658421873 -0.0014981032289778514 0.9997319658421873 -0.0014981032289778514 2.680341578126377E-4 0.0014981032289778514
8.154455185083437E7 2.732220470523306E-4 0.001560866610663928 0.9997267779529475 -0.001560866610663928 0.9997267779529475 -0.001560866610663928 2.732220470523306E-4 0.001560866610663928
8.527865230935192E7 2.785073421569448E-4 0.001626495116919219 0.9997214926578433 -0.001626495116919219 0.9997214926578433 -0.001626495116919219 2.785073421569448E-4 0.001626495116919219
8.918374526114874E7 2.839092918345859E-4 0.0016951217665201565 0.9997160907081656 -0.0016951217665201565 0.9997160907081656 -0.0016951217665201565 2.839092918345859E-4 0.0016951217665201565
9.326766082035308E7 2.89448803953848E-4 0.0017668835829085963 0.9997105511960462 -0.0017668835829085963 0.9997105511960462 -0.0017668835829085963 2.89448803953848E-4 0.0017668835829085963
9.7538587658865E7 2.951483005935591E-4 0.001841921689499793 0.9997048516994064 -0.001841921689499793 0.9997048516994064 -0.001841921689499793 2.951483005935591E-4 0.001841921689499793
1.0200508942548664E8 3.0103156083049185E-4 0.0019203814310576844 0.9996989684391695 -0.0019203814310576844 0.9996989684391695 -0.0019203814310576844 3.0103156083049185E-4 0.0019203814310576844
1.0667612191692284E8 3.071235513747873E-4 0.0020024125215914994 0.9996928764486253 -0.0020024125215914994 0.9996928764486253 -0.0020024125215914994 3.071235513747873E-4 0.0020024125215914994
1.1156105103507556E8 3.134502446442496E-4 0.0020881692197082555 0.9996865497553559 -0.0020881692197082555 0.9996865497553559 -0.0020881692197082555 3.134502446442496E-4 0.0020881692197082555
1.1666967156664492E8 3.200384235018928E-4 0.0021778105330186367 0.9996799615764979 -0.0021778105330186367 0.9996799615764979 -0.0021778105330186367 3.200384235018928E-4 0.0021778105330186367
1.2201222682268488E8 3.269154717078157E-4 0.0022715004540021476 0.9996730845282921 -0.0022715004540021476 0.9996730845282921 -0.0022715004540021476 3.269154717078157E-4 0.0022715004540021476
1.275994291775004E8 3.3410914919215177E-4 0.0023694082306490592 0.9996658908508079 -0.0023694082306490592 0.9996658908508079 -0.0023694082306490592 3.3410914919215177E-4 0.0023694082306490592
1.3344248154806052E8 3.416473515692125E-4 0.00247170867616076 0.9996583526484308 -0.00247170867616076 0.9996583526484308 -0.00247170867616076 3.416473515692125E-4 0.00247170867616076
1.3955309985700467E8 3.495578539051757E-4 0.0025785825229506167 0.9996504421460947 -0.0025785825229506167 0.9996504421460947 -0.0025785825229506167 3.495578539051757E-4 0.0025785825229506167
1.4594353652427363E8 3.578680396343356E-4 0.0026902168270790954 0.9996421319603658 -0.0026902168270790954 0.9996421319603658 -0.0026902168270790954 3.578680396343356E-4 0.0026902168270790954
1.5262660503447738E8 3.6660461669180594E-4 0.0028068054300098024 0.9996333953833083 -0.0028068054300098024 0.9996333953833083 -0.0028068054300098024 3.6660461669180594E-4 0.0028068054300098024
1.5961570562925106E8 3.757933243779866E-4 0.002928549485109107 0.999624206675622 -0.002928549485109107 0.999624206675622 -0.002928549485109107 3.757933243779866E-4 0.002928549485109107
1.6692485217612383E8 3.854586361577751E-4 0.003055658056552459 0.9996145413638423 -0.003055658056552459 0.9996145413638423 -0.003055658056552459 3.854586361577751E-4 0.003055658056552459
1.7456870026776627E8 3.956234654685314E-4 0.0031883487981649032 0.9996043765345316 -0.0031883487981649032 0.9996043765345316 -0.0031883487981649032 3.956234654685314E-4 0.0031883487981649032
1.8256257660796764E8 4.063088835833257E-4 0.00332684871914118 0.9995936911164168 -0.00332684871914118 0.9995936911164168 -0.00332684871914118 4.063088835833257E-4 0.00332684871914118
1.909225097432551E8 4.1753386054157234E-4 0.0034713950425036798 0.9995824661394584 -0.0034713950425036798 0.9995824661394584 -0.0034713950425036798 4.1753386054157234E-4 0.0034713950425036798
1.996652622017855E8 4.2931504198449476E-4 0.0036222361605333753 0.9995706849580156 -0.0036222361605333753 0.9995706849580156 -0.0036222361605333753 4.2931504198449476E-4 0.0036222361605333753
2.088083641039402E8 4.416665762639786E-4 0.0037796326892500782 0.9995583334237361 -0.0037796326892500782 0.9995583334237361 -0.0037796326892500782 4.416665762639786E-4 0.0037796326892500782
2.1837014831202695E8 4.5460000726465014E-4 0.003943858621371829 0.9995453999927354 -0.003943858621371829 0.9995453999927354 -0.003943858621371829 4.5460000726465014E-4 0.003943858621371829
2.283697871895589E8 4.6812424882544754E-4 0.004115202574145081 0.9995318757511743 -0.004115202574145081 0.9995318757511743 -0.004115202574145081 4.6812424882544754E-4 0.004115202574145081
2.38827331043819E8 4.822456563212558E-4 0.004293969125162853 0.9995177543436788 -0.004293969125162853 0.9995177543436788 -0.004293969125162853 4.822456563212558E-4 0.004293969125162853
2.4976374832879743E8 4.969682097563898E-4 0.004480480225983603 0.9995030317902437 -0.004480480225983603 0.9995030317902437 -0.004480480225983603 4.969682097563898E-4 0.004480480225983603
2.612009676891008E8 5.122938205753651E-4 0.0046750766802822205 0.9994877061794247 -0.0046750766802822205 0.9994877061794247 -0.0046750766802822205 5.122938205753651E-4 0.0046750766802822205
2.731619219291499E8 5.282227713321301E-4 0.004878119670688389 0.999471777228668 -0.004878119670688389 0.999471777228668 -0.004878119670688389 5.282227713321301E-4 0.004878119670688389
2.85670593995814E8 5.447542934827433E-4 0.005089992316682581 0.9994552457065173 -0.005089992316682581 0.9994552457065173 -0.005089992316682581 5.447542934827433E-4 0.005089992316682581
2.987520650666969E8 5.618872840755974E-4 0.005311101245191439 0.9994381127159244 -0.005311101245191439 0.9994381127159244 -0.005311101245191439 5.618872840755974E-4 0.005311101245191439
3.124325648404804E8 5.796211572892731E-4 0.00554187815605958 0.9994203788427107 -0.00554187815605958 0.9994203788427107 -0.00554187815605958 5.796211572892731E-4 0.00554187815605958
3.2673952413018024E8 5.979568219597574E-4 0.005782781366502461 0.9994020431780403 -0.005782781366502461 0.9994020431780403 -0.005782781366502461 5.979568219597574E-4 0.005782781366502461
3.4170162986475027E8 6.168977718328478E-4 0.006034297321982253 0.9993831022281673 -0.006034297321982253 0.9993831022281673 -0.006034297321982253 6.168977718328478E-4 0.006034297321982253
3.573488826093389E8 6.364512716628646E-4 0.006296942065601685 0.9993635487283371 -0.006296942065601685 0.9993635487283371 -0.006296942065601685 6.364512716628646E-4 0.006296942065601685
3.737126567195109E8 6.566296198050925E-4 0.006571262663864823 0.9993433703801949 -0.006571262663864823 0.9993433703801949 -0.006571262663864823 6.566296198050925E-4 0.006571262663864823
3.908257632500721E8 6.77451466890097E-4 0.00685783859320202 0.9993225485331099 -0.00685783859320202 0.9993225485331099 -0.00685783859320202 6.77451466890097E-4 0.00685783859320202
4.087225157446121E8 6.989431706891173E-4 0.007157283098620522 0.9993010568293108 -0.007157283098620522 0.9993010568293108 -0.007157283098620522 6.989431706891173E-4 0.007157283098620522
4.274387990377044E8 7.211401694226981E-4 0.007470244542822682 0.9992788598305771 -0.007470244542822682 0.9992788598305771 -0.007470244542822682 7.211401694226981E-4 0.007470244542822682
4.4701214120769453E8 7.440883594441016E-4 0.007797407770745118 0.9992559116405557 -0.007797407770745118 0.9992559116405557 -0.007797407770745118 7.440883594441016E-4 0.007797407770745118
4.6748178882437414E8 7.678454682473207E-4 0.00813949552039586 0.9992321545317528 -0.00813949552039586 0.9992321545317528 -0.00813949552039586 7.678454682473207E-4 0.00813949552039586
4.888887856423943E8 7.924824198246342E-4 0.00849726991587547 0.9992075175801753 -0.00849726991587547 0.9992075175801753 -0.00849726991587547 7.924824198246342E-4 0.00849726991587547
5.1127605489823437E8 8.180846962029695E-4 0.008871534082461422 0.9991819153037969 -0.008871534082461422 0.9991819153037969 -0.008871534082461422 8.180846962029695E-4 0.008871534082461422
5.3468848537570965E8 8.447537061901294E-4 0.009263133926633214 0.9991552462938099 -0.009263133926633214 0.9991552462938099 -0.009263133926633214 8.447537061901294E-4 0.009263133926633214
5.591730214126215E8 8.726081796675122E-4 0.009672960126069873 0.9991273918203325 -0.009672960126069873 0.9991273918203325 -0.009672960126069873 8.726081796675122E-4 0.009672960126069873
5.847787570289875E8 9.017856129533817E-4 0.010101950376210533 0.9990982143870465 -0.010101950376210533 0.9990982143870465 -0.010101950376210533 9.017856129533817E-4 0.010101950376210533
6.115570343656238E8 9.324437977068752E-4 0.010551091941270945 0.9990675562022933 -0.010551091941270945 0.9990675562022933 -0.010551091941270945 9.324437977068752E-4 0.010551091941270945
6.395615466304238E8 9.647624725370968E-4 0.011021424559037759 0.9990352375274629 -0.011021424559037759 0.9990352375274629 -0.011021424559037759 9.647624725370968E-4 0.011021424559037759
6.688484457587857E8 9.98945143032924E-4 0.011514043750739278 0.9990010548569672 -0.011514043750739278 0.9990010548569672 -0.011514043750739278 9.98945143032924E-4 0.011514043750739278
6.994764550040311E8 0.0010352211225632603 0.012030104590235907 0.9989647788774368 -0.012030104590235907 0.9989647788774368 -0.012030104590235907 0.0010352211225632603 0.012030104590235907
7.3150698668358E8 0.0010738478532534145 0.012570825991112498 0.9989261521467467 -0.012570825991112498 0.9989261521467467 -0.012570825991112498 0.0010738478532534145 0.012570825991112498
7.650042653169916E8 0.0011151135744675686 0.013137495576402067 0.9988848864255325 -0.013137495576402067 0.9988848864255325 -0.013137495576402067 0.0011151135744675686 0.013137495576402067
8.00035456402737E8 0.0011593404154748867 0.013731475204045877 0.9988406595845252 -0.013731475204045877 0.9988406595845252 -0.013731475204045877 0.0011593404154748867 0.013731475204045877
8.366708010919645E8 0.0012068880004203082 0.014354207232241928 0.9987931119995797 -0.014354207232241928 0.9987931119995797 -0.014354207232241928 0.0012068880004203082 0.014354207232241928
8.749837570292381E8 0.0012581576680711763 0.015007221623032599 0.9987418423319289 -0.015007221623032599 0.9987418423319289 -0.015007221623032599 0.0012581576680711763 0.015007221623032599
9.150511456427057E8 0.0013135974270567002 0.015692144000405448 0.998686402572943 -0.015692144000405448 0.998686402572943 -0.015692144000405448 0.0013135974270567002 0.015692144000405448
9.569533061789705E8 0.001373707790684066 0.016410704801508677 0.9986262922093159 -0.016410704801508677 0.9986262922093159 -0.016410704801508677 0.001373707790684066 0.016410704801508677
1.0007742567915817E9 0.00143904866545521 0.017164749687182148 0.9985609513345448 -0.017164749687182148 0.9985609513345448 -0.017164749687182148 0.00143904866545521 0.017164749687182148
1.0466018630060829E9 0.0015102475061244771 0.01795625141196148 0.9984897524938757 -0.01795625141196148 0.9984897524938757 -0.01795625141196148 0.0015102475061244771 0.01795625141196148
1.0945280138994675E9 0.0015880090001626481 0.01878732339543501 0.9984119909998372 -0.01878732339543501 0.9984119909998372 -0.01878732339543501 0.0015880090001626481 0.01878732339543501
1.1446488063472402E9 0.0016731266093372894 0.019660235288115176 0.9983268733906628 -0.019660235288115176 0.9983268733906628 -0.019660235288115176 0.0016731266093372894 0.019660235288115176
1.1970647377075796E9 0.0017664963805255067 0.020577430888149114 0.9982335036194745 -0.020577430888149114 0.9982335036194745 -0.020577430888149114 0.0017664963805255067 0.020577430888149114
1.25188090732889E9 0.001869133548317844 0.021541548843205496 0.9981308664516819 -0.021541548843205496 0.9981308664516819 -0.021541548843205496 0.001869133548317844 0.021541548843205496
1.3092072272848508E9 0.0019821925973850735 0.022555446668554323 0.9980178074026151 -0.022555446668554323 0.9980178074026151 -0.022555446668554323 0.0019821925973850735 0.022555446668554323
1.3691586427594438E9 0.0021069916454067657 0.0236222287325688 0.997893008354593 -0.0236222287325688 0.997893008354593 -0.0236222287325688 0.0021069916454067657 0.0236222287325688
1.4318553625239198E9 0.0022450422651099757 0.024745279010830203 0.9977549577348899 -0.024745279010830203 0.9977549577348899 -0.024745279010830203 0.0022450422651099757 0.024745279010830203
1.497423099967763E9 0.002398086211517272 0.025928299597523394 0.9976019137884828 -0.025928299597523394 0.9976019137884828 -0.025928299597523394 0.002398086211517272 0.025928299597523394
1.5659933251670253E9 0.002568140993590568 0.027175356197643562 0.9974318590064093 -0.027175356197643562 0.9974318590064093 -0.027175356197643562 0.002568140993590568 0.027175356197643562
1.6377035284953644E9 0.0027575568799736053 0.028490932117592335 0.9972424431200264 -0.028490932117592335 0.9972424431200264 -0.028490932117592335 0.0027575568799736053 0.028490932117592335
1.712697496306447E9 0.0029690888327338705 0.029879992639048433 0.9970309111672662 -0.029879992639048433 0.9970309111672662 -0.029879992639048433 0.0029690888327338705 0.029879992639048433
1.7911255992403932E9 0.0032059881343079063 0.03134806211689033 0.9967940118656923 -0.03134806211689033 0.9967940118656923 -0.03134806211689033 0.0032059881343079063 0.03134806211689033
1.8731450937324457E9 0.0034721202821856034 0.03290131670076789 0.9965278797178144 -0.03290131670076789 0.9965278797178144 -0.03290131670076789 0.0034721202821856034 0.03290131670076789
1.9589204373283114E9 0.003772118334305139 0.03454669624915356 0.996227881665695 -0.03454669624915356 0.996227881665695 -0.03454669624915356 0.003772118334305139 0.03454669624915356
2.0486236184385304E9 0.00411158470014881 0.036292039771906336 0.9958884152998512 -0.036292039771906336 0.9958884152998512 -0.036292039771906336 0.00411158470014881 0.036292039771906336
2.142434501192965E9 0.004497360024040469 0.03814624954163101 0.9955026399759596 -0.03814624954163101 0.9955026399759596 -0.03814624954163101 0.004497360024040469 0.03814624954163101
2.240541186086919E9 0.004937886313152727 0.04011948968528241 0.9950621136868474 -0.04011948968528241 0.9950621136868474 -0.04011948968528241 0.004937886313152727 0.04011948968528241
2.343140387142058E9 0.005443704468348149 0.04222342519695053 0.9945562955316521 -0.04222342519695053 0.9945562955316521 -0.04222342519695053 0.005443704468348149 0.04222342519695053
2.450437826338281E9 0.006028146588352302 0.04447150597752945 0.9939718534116477 -0.04447150597752945 0.9939718534116477 -0.04447150597752945 0.006028146588352302 0.04447150597752945
2.5626486461075397E9 0.006708315356082693 0.046879295673505524 0.9932916846439175 -0.046879295673505524 0.9932916846439175 -0.046879295673505524 0.006708315356082693 0.046879295673505524
2.6799978407165675E9 0.007506494118074512 0.049464832303741414 0.9924935058819254 -0.049464832303741414 0.9924935058819254 -0.049464832303741414 0.007506494118074512 0.049464832303741414
2.8027207074036303E9 0.008452214947833471 0.052248977135282454 0.9915477850521669 -0.052248977135282454 0.9915477850521669 -0.052248977135282454 0.008452214947833471 0.052248977135282454
2.9310633181737137E9 0.009585350204814665 0.05525563817109704 0.9904146497951855 -0.05525563817109704 0.9904146497951855 -0.05525563817109704 0.009585350204814665 0.05525563817109704
3.065283013198317E9 0.010960822901458823 0.05851159543120993 0.9890391770985413 -0.05851159543120993 0.9890391770985413 -0.05851159543120993 0.010960822901458823 0.05851159543120993
3.2056489168089914E9 0.012655910691467445 0.06204529225178376 0.9873440893085325 -0.06204529225178376 0.9873440893085325 -0.06204529225178376 0.012655910691467445 0.06204529225178376
3.352442477119432E9 0.014781721946484649 0.06588311882153221 0.9852182780535154 -0.06588311882153221 0.9852182780535154 -0.06588311882153221 0.014781721946484649 0.06588311882153221
3.5059580303579197E9 0.017501270568795673 0.07003974950609812 0.9824987294312044 -0.07003974950609812 0.9824987294312044 -0.07003974950609812 0.017501270568795673 0.07003974950609812
3.666503391041871E9 0.021057267986788093 0.07449444178010377 0.9789427320132118 -0.07449444178010377 0.9789427320132118 -0.07449444178010377 0.021057267986788093 0.07449444178010377
3.834400469177637E9 0.025810880251902327 0.0791343005948759 0.9741891197480977 -0.0791343005948759 0.9741891197480977 -0.0791343005948759 0.025810880251902327 0.0791343005948759
4.0099859157233253E9 0.032277672878916336 0.08362183677352171 0.9677223271210835 -0.08362183677352171 0.9677223271210835 -0.08362183677352171 0.032277672878916336 0.08362183677352171
4.1936117976086297E9 0.04107944169000575 0.08710714208798384 0.9589205583099942 -0.08710714208798384 0.9589205583099942 -0.08710714208798384 0.04107944169000575 0.08710714208798384
4.3856463036654005E9 0.05250511632869166 0.08774002742555119 0.9474948836713085 -0.08774002742555119 0.9474948836713085 -0.08774002742555119 0.05250511632869166 0.08774002742555119
4.58647448288416E9 0.06499922993033583 0.08254248736008271 0.935000770069664 -0.08254248736008271 0.935000770069664 -0.08254248736008271 0.06499922993033583 0.08254248736008271
4.796499016477109E9 0.07307301917070372 0.07005092072516639 0.9269269808292963 -0.07005092072516639 0.9269269808292963 -0.07005092072516639 0.07307301917070372 0.07005092072516639
5.01614102529542E9 0.07072230048550052 0.0558334152744869 0.9292776995144993 -0.0558334152744869 0.9292776995144993 -0.0558334152744869 0.07072230048550052 0.0558334152744869
5.245840914220046E9 0.06053294341025875 0.048738437640744404 0.9394670565897411 -0.048738437640744404 0.9394670565897411 -0.048738437640744404 0.06053294341025875 0.048738437640744404
5.486059255218861E9 0.050200464200859704 0.050343897442103686 0.9497995357991403 -0.050343897442103686 0.9497995357991403 -0.050343897442103686 0.050200464200859704 0.050343897442103686
5.737277710841024E9 0.04360119831542989 0.05710916604893762 0.95639880168457 -0.05710916604893762 0.95639880168457 -0.05710916604893762 0.04360119831542989 0.05710916604893762
6.0E9 0.04104303180943002 0.06607956420339602 0.95895696819057 -0.06607956420339602 0.95895696819057 -0.06607956420339602 0.04104303180943002 0.06607956420339602
